NAME K_system_min_bad_IIS
ROWS
 N  OBJ
 E  rec_s67_edge_0_2_choose_one
 E  rec_s67_edge_1_22_choose_one
 E  rec_s67_edge_2_1_choose_one
 E  rec_s67_edge_3_9_choose_one
 E  rec_s67_edge_4_34_choose_one
 E  rec_s67_edge_5_0_choose_one
 E  rec_s67_edge_6_52_choose_one
 E  rec_s67_edge_7_3_choose_one
 E  rec_s67_edge_8_10_choose_one
 E  rec_s67_edge_9_6_choose_one
 E  rec_s67_edge_10_5_choose_one
 E  rec_s67_edge_11_8_choose_one
 E  rec_s67_edge_12_11_choose_one
 E  rec_s67_edge_13_14_choose_one
 E  rec_s67_edge_14_12_choose_one
 E  rec_s67_edge_15_13_choose_one
 E  rec_s67_edge_16_17_choose_one
 E  rec_s67_edge_17_38_choose_one
 E  rec_s67_edge_18_20_choose_one
 E  rec_s67_edge_19_45_choose_one
 E  rec_s67_edge_20_16_choose_one
 E  rec_s67_edge_21_24_choose_one
 E  rec_s67_edge_22_21_choose_one
 E  rec_s67_edge_23_46_choose_one
 E  rec_s67_edge_24_23_choose_one
 E  rec_s67_edge_25_31_choose_one
 E  rec_s67_edge_26_27_choose_one
 E  rec_s67_edge_27_28_choose_one
 E  rec_s67_edge_28_25_choose_one
 E  rec_s67_edge_29_7_choose_one
 E  rec_s67_edge_30_29_choose_one
 E  rec_s67_edge_31_30_choose_one
 E  rec_s67_edge_32_40_choose_one
 E  rec_s67_edge_33_35_choose_one
 E  rec_s67_edge_34_33_choose_one
 E  rec_s67_edge_35_32_choose_one
 E  rec_s67_edge_36_49_choose_one
 E  rec_s67_edge_37_39_choose_one
 E  rec_s67_edge_38_15_choose_one
 E  rec_s67_edge_39_53_choose_one
 E  rec_s67_edge_40_37_choose_one
 E  rec_s67_edge_41_4_choose_one
 E  rec_s67_edge_42_44_choose_one
 E  rec_s67_edge_43_19_choose_one
 E  rec_s67_edge_44_50_choose_one
 E  rec_s67_edge_45_18_choose_one
 E  rec_s67_edge_46_42_choose_one
 E  rec_s67_edge_47_41_choose_one
 E  rec_s67_edge_48_51_choose_one
 E  rec_s67_edge_49_26_choose_one
 E  rec_s67_edge_50_48_choose_one
 E  rec_s67_edge_51_36_choose_one
 E  rec_s67_edge_52_47_choose_one
 E  rec_s67_edge_53_43_choose_one
 E  rec_s80_edge_0_2_choose_one
 E  rec_s80_edge_1_22_choose_one
 E  rec_s80_edge_2_1_choose_one
 E  rec_s80_edge_3_9_choose_one
 E  rec_s80_edge_4_34_choose_one
 E  rec_s80_edge_5_0_choose_one
 E  rec_s80_edge_6_52_choose_one
 E  rec_s80_edge_7_3_choose_one
 E  rec_s80_edge_8_10_choose_one
 E  rec_s80_edge_9_6_choose_one
 E  rec_s80_edge_10_5_choose_one
 E  rec_s80_edge_11_8_choose_one
 E  rec_s80_edge_12_11_choose_one
 E  rec_s80_edge_13_14_choose_one
 E  rec_s80_edge_14_12_choose_one
 E  rec_s80_edge_15_13_choose_one
 E  rec_s80_edge_16_17_choose_one
 E  rec_s80_edge_17_38_choose_one
 E  rec_s80_edge_18_20_choose_one
 E  rec_s80_edge_19_45_choose_one
 E  rec_s80_edge_20_16_choose_one
 E  rec_s80_edge_21_24_choose_one
 E  rec_s80_edge_22_21_choose_one
 E  rec_s80_edge_23_46_choose_one
 E  rec_s80_edge_24_23_choose_one
 E  rec_s80_edge_25_31_choose_one
 E  rec_s80_edge_26_27_choose_one
 E  rec_s80_edge_27_28_choose_one
 E  rec_s80_edge_28_25_choose_one
 E  rec_s80_edge_29_7_choose_one
 E  rec_s80_edge_30_29_choose_one
 E  rec_s80_edge_31_30_choose_one
 E  rec_s80_edge_32_40_choose_one
 E  rec_s80_edge_33_35_choose_one
 E  rec_s80_edge_34_33_choose_one
 E  rec_s80_edge_35_32_choose_one
 E  rec_s80_edge_36_49_choose_one
 E  rec_s80_edge_37_39_choose_one
 E  rec_s80_edge_38_15_choose_one
 E  rec_s80_edge_39_53_choose_one
 E  rec_s80_edge_40_37_choose_one
 E  rec_s80_edge_41_4_choose_one
 E  rec_s80_edge_42_44_choose_one
 E  rec_s80_edge_43_19_choose_one
 E  rec_s80_edge_44_50_choose_one
 E  rec_s80_edge_45_18_choose_one
 E  rec_s80_edge_46_42_choose_one
 E  rec_s80_edge_47_41_choose_one
 E  rec_s80_edge_48_51_choose_one
 E  rec_s80_edge_49_26_choose_one
 E  rec_s80_edge_50_48_choose_one
 E  rec_s80_edge_51_36_choose_one
 E  rec_s80_edge_52_47_choose_one
 E  rec_s80_edge_53_43_choose_one
 E  rec_s55_edge_0_2_choose_one
 E  rec_s55_edge_1_22_choose_one
 E  rec_s55_edge_2_1_choose_one
 E  rec_s55_edge_3_9_choose_one
 E  rec_s55_edge_4_34_choose_one
 E  rec_s55_edge_5_0_choose_one
 E  rec_s55_edge_6_52_choose_one
 E  rec_s55_edge_7_3_choose_one
 E  rec_s55_edge_8_10_choose_one
 E  rec_s55_edge_9_6_choose_one
 E  rec_s55_edge_10_5_choose_one
 E  rec_s55_edge_11_8_choose_one
 E  rec_s55_edge_12_11_choose_one
 E  rec_s55_edge_13_14_choose_one
 E  rec_s55_edge_14_12_choose_one
 E  rec_s55_edge_15_13_choose_one
 E  rec_s55_edge_16_17_choose_one
 E  rec_s55_edge_17_38_choose_one
 E  rec_s55_edge_18_20_choose_one
 E  rec_s55_edge_19_45_choose_one
 E  rec_s55_edge_20_16_choose_one
 E  rec_s55_edge_21_24_choose_one
 E  rec_s55_edge_22_21_choose_one
 E  rec_s55_edge_23_46_choose_one
 E  rec_s55_edge_24_23_choose_one
 E  rec_s55_edge_25_31_choose_one
 E  rec_s55_edge_26_27_choose_one
 E  rec_s55_edge_27_28_choose_one
 E  rec_s55_edge_28_25_choose_one
 E  rec_s55_edge_29_7_choose_one
 E  rec_s55_edge_30_29_choose_one
 E  rec_s55_edge_31_30_choose_one
 E  rec_s55_edge_32_40_choose_one
 E  rec_s55_edge_33_35_choose_one
 E  rec_s55_edge_34_33_choose_one
 E  rec_s55_edge_35_32_choose_one
 E  rec_s55_edge_36_49_choose_one
 E  rec_s55_edge_37_39_choose_one
 E  rec_s55_edge_38_15_choose_one
 E  rec_s55_edge_39_53_choose_one
 E  rec_s55_edge_40_37_choose_one
 E  rec_s55_edge_41_4_choose_one
 E  rec_s55_edge_42_44_choose_one
 E  rec_s55_edge_43_19_choose_one
 E  rec_s55_edge_44_50_choose_one
 E  rec_s55_edge_45_18_choose_one
 E  rec_s55_edge_46_42_choose_one
 E  rec_s55_edge_47_41_choose_one
 E  rec_s55_edge_48_51_choose_one
 E  rec_s55_edge_49_26_choose_one
 E  rec_s55_edge_50_48_choose_one
 E  rec_s55_edge_51_36_choose_one
 E  rec_s55_edge_52_47_choose_one
 E  rec_s55_edge_53_43_choose_one
 E  rec_s4_edge_0_2_choose_one
 E  rec_s4_edge_1_22_choose_one
 E  rec_s4_edge_2_1_choose_one
 E  rec_s4_edge_3_9_choose_one
 E  rec_s4_edge_4_34_choose_one
 E  rec_s4_edge_5_0_choose_one
 E  rec_s4_edge_6_52_choose_one
 E  rec_s4_edge_7_3_choose_one
 E  rec_s4_edge_8_10_choose_one
 E  rec_s4_edge_9_6_choose_one
 E  rec_s4_edge_10_5_choose_one
 E  rec_s4_edge_11_8_choose_one
 E  rec_s4_edge_12_11_choose_one
 E  rec_s4_edge_13_14_choose_one
 E  rec_s4_edge_14_12_choose_one
 E  rec_s4_edge_15_13_choose_one
 E  rec_s4_edge_16_17_choose_one
 E  rec_s4_edge_17_38_choose_one
 E  rec_s4_edge_18_20_choose_one
 E  rec_s4_edge_19_45_choose_one
 E  rec_s4_edge_20_16_choose_one
 E  rec_s4_edge_21_24_choose_one
 E  rec_s4_edge_22_21_choose_one
 E  rec_s4_edge_23_46_choose_one
 E  rec_s4_edge_24_23_choose_one
 E  rec_s4_edge_25_31_choose_one
 E  rec_s4_edge_26_27_choose_one
 E  rec_s4_edge_27_28_choose_one
 E  rec_s4_edge_28_25_choose_one
 E  rec_s4_edge_29_7_choose_one
 E  rec_s4_edge_30_29_choose_one
 E  rec_s4_edge_31_30_choose_one
 E  rec_s4_edge_32_40_choose_one
 E  rec_s4_edge_33_35_choose_one
 E  rec_s4_edge_34_33_choose_one
 E  rec_s4_edge_35_32_choose_one
 E  rec_s4_edge_36_49_choose_one
 E  rec_s4_edge_37_39_choose_one
 E  rec_s4_edge_38_15_choose_one
 E  rec_s4_edge_39_53_choose_one
 E  rec_s4_edge_40_37_choose_one
 E  rec_s4_edge_41_4_choose_one
 E  rec_s4_edge_42_44_choose_one
 E  rec_s4_edge_43_19_choose_one
 E  rec_s4_edge_44_50_choose_one
 E  rec_s4_edge_45_18_choose_one
 E  rec_s4_edge_46_42_choose_one
 E  rec_s4_edge_47_41_choose_one
 E  rec_s4_edge_48_51_choose_one
 E  rec_s4_edge_49_26_choose_one
 E  rec_s4_edge_50_48_choose_one
 E  rec_s4_edge_51_36_choose_one
 E  rec_s4_edge_52_47_choose_one
 E  rec_s4_edge_53_43_choose_one
 E  rec_s5_edge_0_2_choose_one
 E  rec_s5_edge_1_22_choose_one
 E  rec_s5_edge_2_1_choose_one
 E  rec_s5_edge_3_9_choose_one
 E  rec_s5_edge_4_34_choose_one
 E  rec_s5_edge_5_0_choose_one
 E  rec_s5_edge_6_52_choose_one
 E  rec_s5_edge_7_3_choose_one
 E  rec_s5_edge_8_10_choose_one
 E  rec_s5_edge_9_6_choose_one
 E  rec_s5_edge_10_5_choose_one
 E  rec_s5_edge_11_8_choose_one
 E  rec_s5_edge_12_11_choose_one
 E  rec_s5_edge_13_14_choose_one
 E  rec_s5_edge_14_12_choose_one
 E  rec_s5_edge_15_13_choose_one
 E  rec_s5_edge_16_17_choose_one
 E  rec_s5_edge_17_38_choose_one
 E  rec_s5_edge_18_20_choose_one
 E  rec_s5_edge_19_45_choose_one
 E  rec_s5_edge_20_16_choose_one
 E  rec_s5_edge_21_24_choose_one
 E  rec_s5_edge_22_21_choose_one
 E  rec_s5_edge_23_46_choose_one
 E  rec_s5_edge_24_23_choose_one
 E  rec_s5_edge_25_31_choose_one
 E  rec_s5_edge_26_27_choose_one
 E  rec_s5_edge_27_28_choose_one
 E  rec_s5_edge_28_25_choose_one
 E  rec_s5_edge_29_7_choose_one
 E  rec_s5_edge_30_29_choose_one
 E  rec_s5_edge_31_30_choose_one
 E  rec_s5_edge_32_40_choose_one
 E  rec_s5_edge_33_35_choose_one
 E  rec_s5_edge_34_33_choose_one
 E  rec_s5_edge_35_32_choose_one
 E  rec_s5_edge_36_49_choose_one
 E  rec_s5_edge_37_39_choose_one
 E  rec_s5_edge_38_15_choose_one
 E  rec_s5_edge_39_53_choose_one
 E  rec_s5_edge_40_37_choose_one
 E  rec_s5_edge_41_4_choose_one
 E  rec_s5_edge_42_44_choose_one
 E  rec_s5_edge_43_19_choose_one
 E  rec_s5_edge_44_50_choose_one
 E  rec_s5_edge_45_18_choose_one
 E  rec_s5_edge_46_42_choose_one
 E  rec_s5_edge_47_41_choose_one
 E  rec_s5_edge_48_51_choose_one
 E  rec_s5_edge_49_26_choose_one
 E  rec_s5_edge_50_48_choose_one
 E  rec_s5_edge_51_36_choose_one
 E  rec_s5_edge_52_47_choose_one
 E  rec_s5_edge_53_43_choose_one
 E  rec_s62_edge_0_2_choose_one
 E  rec_s62_edge_1_22_choose_one
 E  rec_s62_edge_2_1_choose_one
 E  rec_s62_edge_3_9_choose_one
 E  rec_s62_edge_4_34_choose_one
 E  rec_s62_edge_5_0_choose_one
 E  rec_s62_edge_6_52_choose_one
 E  rec_s62_edge_7_3_choose_one
 E  rec_s62_edge_8_10_choose_one
 E  rec_s62_edge_9_6_choose_one
 E  rec_s62_edge_10_5_choose_one
 E  rec_s62_edge_11_8_choose_one
 E  rec_s62_edge_12_11_choose_one
 E  rec_s62_edge_13_14_choose_one
 E  rec_s62_edge_14_12_choose_one
 E  rec_s62_edge_15_13_choose_one
 E  rec_s62_edge_16_17_choose_one
 E  rec_s62_edge_17_38_choose_one
 E  rec_s62_edge_18_20_choose_one
 E  rec_s62_edge_19_45_choose_one
 E  rec_s62_edge_20_16_choose_one
 E  rec_s62_edge_21_24_choose_one
 E  rec_s62_edge_22_21_choose_one
 E  rec_s62_edge_23_46_choose_one
 E  rec_s62_edge_24_23_choose_one
 E  rec_s62_edge_25_31_choose_one
 E  rec_s62_edge_26_27_choose_one
 E  rec_s62_edge_27_28_choose_one
 E  rec_s62_edge_28_25_choose_one
 E  rec_s62_edge_29_7_choose_one
 E  rec_s62_edge_30_29_choose_one
 E  rec_s62_edge_31_30_choose_one
 E  rec_s62_edge_32_40_choose_one
 E  rec_s62_edge_33_35_choose_one
 E  rec_s62_edge_34_33_choose_one
 E  rec_s62_edge_35_32_choose_one
 E  rec_s62_edge_36_49_choose_one
 E  rec_s62_edge_37_39_choose_one
 E  rec_s62_edge_38_15_choose_one
 E  rec_s62_edge_39_53_choose_one
 E  rec_s62_edge_40_37_choose_one
 E  rec_s62_edge_41_4_choose_one
 E  rec_s62_edge_42_44_choose_one
 E  rec_s62_edge_43_19_choose_one
 E  rec_s62_edge_44_50_choose_one
 E  rec_s62_edge_45_18_choose_one
 E  rec_s62_edge_46_42_choose_one
 E  rec_s62_edge_47_41_choose_one
 E  rec_s62_edge_48_51_choose_one
 E  rec_s62_edge_49_26_choose_one
 E  rec_s62_edge_50_48_choose_one
 E  rec_s62_edge_51_36_choose_one
 E  rec_s62_edge_52_47_choose_one
 E  rec_s62_edge_53_43_choose_one
 E  rec_s78_edge_0_2_choose_one
 E  rec_s78_edge_1_22_choose_one
 E  rec_s78_edge_2_1_choose_one
 E  rec_s78_edge_3_9_choose_one
 E  rec_s78_edge_4_34_choose_one
 E  rec_s78_edge_5_0_choose_one
 E  rec_s78_edge_6_52_choose_one
 E  rec_s78_edge_7_3_choose_one
 E  rec_s78_edge_8_10_choose_one
 E  rec_s78_edge_9_6_choose_one
 E  rec_s78_edge_10_5_choose_one
 E  rec_s78_edge_11_8_choose_one
 E  rec_s78_edge_12_11_choose_one
 E  rec_s78_edge_13_14_choose_one
 E  rec_s78_edge_14_12_choose_one
 E  rec_s78_edge_15_13_choose_one
 E  rec_s78_edge_16_17_choose_one
 E  rec_s78_edge_17_38_choose_one
 E  rec_s78_edge_18_20_choose_one
 E  rec_s78_edge_19_45_choose_one
 E  rec_s78_edge_20_16_choose_one
 E  rec_s78_edge_21_24_choose_one
 E  rec_s78_edge_22_21_choose_one
 E  rec_s78_edge_23_46_choose_one
 E  rec_s78_edge_24_23_choose_one
 E  rec_s78_edge_25_31_choose_one
 E  rec_s78_edge_26_27_choose_one
 E  rec_s78_edge_27_28_choose_one
 E  rec_s78_edge_28_25_choose_one
 E  rec_s78_edge_29_7_choose_one
 E  rec_s78_edge_30_29_choose_one
 E  rec_s78_edge_31_30_choose_one
 E  rec_s78_edge_32_40_choose_one
 E  rec_s78_edge_33_35_choose_one
 E  rec_s78_edge_34_33_choose_one
 E  rec_s78_edge_35_32_choose_one
 E  rec_s78_edge_36_49_choose_one
 E  rec_s78_edge_37_39_choose_one
 E  rec_s78_edge_38_15_choose_one
 E  rec_s78_edge_39_53_choose_one
 E  rec_s78_edge_40_37_choose_one
 E  rec_s78_edge_41_4_choose_one
 E  rec_s78_edge_42_44_choose_one
 E  rec_s78_edge_43_19_choose_one
 E  rec_s78_edge_44_50_choose_one
 E  rec_s78_edge_45_18_choose_one
 E  rec_s78_edge_46_42_choose_one
 E  rec_s78_edge_47_41_choose_one
 E  rec_s78_edge_48_51_choose_one
 E  rec_s78_edge_49_26_choose_one
 E  rec_s78_edge_50_48_choose_one
 E  rec_s78_edge_51_36_choose_one
 E  rec_s78_edge_52_47_choose_one
 E  rec_s78_edge_53_43_choose_one
 E  rec_s96_edge_0_2_choose_one
 E  rec_s96_edge_1_22_choose_one
 E  rec_s96_edge_2_1_choose_one
 E  rec_s96_edge_3_9_choose_one
 E  rec_s96_edge_4_34_choose_one
 E  rec_s96_edge_5_0_choose_one
 E  rec_s96_edge_6_52_choose_one
 E  rec_s96_edge_7_3_choose_one
 E  rec_s96_edge_8_10_choose_one
 E  rec_s96_edge_9_6_choose_one
 E  rec_s96_edge_10_5_choose_one
 E  rec_s96_edge_11_8_choose_one
 E  rec_s96_edge_12_11_choose_one
 E  rec_s96_edge_13_14_choose_one
 E  rec_s96_edge_14_12_choose_one
 E  rec_s96_edge_15_13_choose_one
 E  rec_s96_edge_16_17_choose_one
 E  rec_s96_edge_17_38_choose_one
 E  rec_s96_edge_18_20_choose_one
 E  rec_s96_edge_19_45_choose_one
 E  rec_s96_edge_20_16_choose_one
 E  rec_s96_edge_21_24_choose_one
 E  rec_s96_edge_22_21_choose_one
 E  rec_s96_edge_23_46_choose_one
 E  rec_s96_edge_24_23_choose_one
 E  rec_s96_edge_25_31_choose_one
 E  rec_s96_edge_26_27_choose_one
 E  rec_s96_edge_27_28_choose_one
 E  rec_s96_edge_28_25_choose_one
 E  rec_s96_edge_29_7_choose_one
 E  rec_s96_edge_30_29_choose_one
 E  rec_s96_edge_31_30_choose_one
 E  rec_s96_edge_32_40_choose_one
 E  rec_s96_edge_33_35_choose_one
 E  rec_s96_edge_34_33_choose_one
 E  rec_s96_edge_35_32_choose_one
 E  rec_s96_edge_36_49_choose_one
 E  rec_s96_edge_37_39_choose_one
 E  rec_s96_edge_38_15_choose_one
 E  rec_s96_edge_39_53_choose_one
 E  rec_s96_edge_40_37_choose_one
 E  rec_s96_edge_41_4_choose_one
 E  rec_s96_edge_42_44_choose_one
 E  rec_s96_edge_43_19_choose_one
 E  rec_s96_edge_44_50_choose_one
 E  rec_s96_edge_45_18_choose_one
 E  rec_s96_edge_46_42_choose_one
 E  rec_s96_edge_47_41_choose_one
 E  rec_s96_edge_48_51_choose_one
 E  rec_s96_edge_49_26_choose_one
 E  rec_s96_edge_50_48_choose_one
 E  rec_s96_edge_51_36_choose_one
 E  rec_s96_edge_52_47_choose_one
 E  rec_s96_edge_53_43_choose_one
 E  rec_s64_edge_0_2_choose_one
 E  rec_s64_edge_1_22_choose_one
 E  rec_s64_edge_2_1_choose_one
 E  rec_s64_edge_3_9_choose_one
 E  rec_s64_edge_4_34_choose_one
 E  rec_s64_edge_5_0_choose_one
 E  rec_s64_edge_6_52_choose_one
 E  rec_s64_edge_7_3_choose_one
 E  rec_s64_edge_8_10_choose_one
 E  rec_s64_edge_9_6_choose_one
 E  rec_s64_edge_10_5_choose_one
 E  rec_s64_edge_11_8_choose_one
 E  rec_s64_edge_12_11_choose_one
 E  rec_s64_edge_13_14_choose_one
 E  rec_s64_edge_14_12_choose_one
 E  rec_s64_edge_15_13_choose_one
 E  rec_s64_edge_16_17_choose_one
 E  rec_s64_edge_17_38_choose_one
 E  rec_s64_edge_18_20_choose_one
 E  rec_s64_edge_19_45_choose_one
 E  rec_s64_edge_20_16_choose_one
 E  rec_s64_edge_21_24_choose_one
 E  rec_s64_edge_22_21_choose_one
 E  rec_s64_edge_23_46_choose_one
 E  rec_s64_edge_24_23_choose_one
 E  rec_s64_edge_25_31_choose_one
 E  rec_s64_edge_26_27_choose_one
 E  rec_s64_edge_27_28_choose_one
 E  rec_s64_edge_28_25_choose_one
 E  rec_s64_edge_29_7_choose_one
 E  rec_s64_edge_30_29_choose_one
 E  rec_s64_edge_31_30_choose_one
 E  rec_s64_edge_32_40_choose_one
 E  rec_s64_edge_33_35_choose_one
 E  rec_s64_edge_34_33_choose_one
 E  rec_s64_edge_35_32_choose_one
 E  rec_s64_edge_36_49_choose_one
 E  rec_s64_edge_37_39_choose_one
 E  rec_s64_edge_38_15_choose_one
 E  rec_s64_edge_39_53_choose_one
 E  rec_s64_edge_40_37_choose_one
 E  rec_s64_edge_41_4_choose_one
 E  rec_s64_edge_42_44_choose_one
 E  rec_s64_edge_43_19_choose_one
 E  rec_s64_edge_44_50_choose_one
 E  rec_s64_edge_45_18_choose_one
 E  rec_s64_edge_46_42_choose_one
 E  rec_s64_edge_47_41_choose_one
 E  rec_s64_edge_48_51_choose_one
 E  rec_s64_edge_49_26_choose_one
 E  rec_s64_edge_50_48_choose_one
 E  rec_s64_edge_51_36_choose_one
 E  rec_s64_edge_52_47_choose_one
 E  rec_s64_edge_53_43_choose_one
 E  rec_s20_edge_0_2_choose_one
 E  rec_s20_edge_1_22_choose_one
 E  rec_s20_edge_2_1_choose_one
 E  rec_s20_edge_3_9_choose_one
 E  rec_s20_edge_4_34_choose_one
 E  rec_s20_edge_5_0_choose_one
 E  rec_s20_edge_6_52_choose_one
 E  rec_s20_edge_7_3_choose_one
 E  rec_s20_edge_8_10_choose_one
 E  rec_s20_edge_9_6_choose_one
 E  rec_s20_edge_10_5_choose_one
 E  rec_s20_edge_11_8_choose_one
 E  rec_s20_edge_12_11_choose_one
 E  rec_s20_edge_13_14_choose_one
 E  rec_s20_edge_14_12_choose_one
 E  rec_s20_edge_15_13_choose_one
 E  rec_s20_edge_16_17_choose_one
 E  rec_s20_edge_17_38_choose_one
 E  rec_s20_edge_18_20_choose_one
 E  rec_s20_edge_19_45_choose_one
 E  rec_s20_edge_20_16_choose_one
 E  rec_s20_edge_21_24_choose_one
 E  rec_s20_edge_22_21_choose_one
 E  rec_s20_edge_23_46_choose_one
 E  rec_s20_edge_24_23_choose_one
 E  rec_s20_edge_25_31_choose_one
 E  rec_s20_edge_26_27_choose_one
 E  rec_s20_edge_27_28_choose_one
 E  rec_s20_edge_28_25_choose_one
 E  rec_s20_edge_29_7_choose_one
 E  rec_s20_edge_30_29_choose_one
 E  rec_s20_edge_31_30_choose_one
 E  rec_s20_edge_32_40_choose_one
 E  rec_s20_edge_33_35_choose_one
 E  rec_s20_edge_34_33_choose_one
 E  rec_s20_edge_35_32_choose_one
 E  rec_s20_edge_36_49_choose_one
 E  rec_s20_edge_37_39_choose_one
 E  rec_s20_edge_38_15_choose_one
 E  rec_s20_edge_39_53_choose_one
 E  rec_s20_edge_40_37_choose_one
 E  rec_s20_edge_41_4_choose_one
 E  rec_s20_edge_42_44_choose_one
 E  rec_s20_edge_43_19_choose_one
 E  rec_s20_edge_44_50_choose_one
 E  rec_s20_edge_45_18_choose_one
 E  rec_s20_edge_46_42_choose_one
 E  rec_s20_edge_47_41_choose_one
 E  rec_s20_edge_48_51_choose_one
 E  rec_s20_edge_49_26_choose_one
 E  rec_s20_edge_50_48_choose_one
 E  rec_s20_edge_51_36_choose_one
 E  rec_s20_edge_52_47_choose_one
 E  rec_s20_edge_53_43_choose_one
 E  rec_s51_edge_0_2_choose_one
 E  rec_s51_edge_1_22_choose_one
 E  rec_s51_edge_2_1_choose_one
 E  rec_s51_edge_3_9_choose_one
 E  rec_s51_edge_4_34_choose_one
 E  rec_s51_edge_5_0_choose_one
 E  rec_s51_edge_6_52_choose_one
 E  rec_s51_edge_7_3_choose_one
 E  rec_s51_edge_8_10_choose_one
 E  rec_s51_edge_9_6_choose_one
 E  rec_s51_edge_10_5_choose_one
 E  rec_s51_edge_11_8_choose_one
 E  rec_s51_edge_12_11_choose_one
 E  rec_s51_edge_13_14_choose_one
 E  rec_s51_edge_14_12_choose_one
 E  rec_s51_edge_15_13_choose_one
 E  rec_s51_edge_16_17_choose_one
 E  rec_s51_edge_17_38_choose_one
 E  rec_s51_edge_18_20_choose_one
 E  rec_s51_edge_19_45_choose_one
 E  rec_s51_edge_20_16_choose_one
 E  rec_s51_edge_21_24_choose_one
 E  rec_s51_edge_22_21_choose_one
 E  rec_s51_edge_23_46_choose_one
 E  rec_s51_edge_24_23_choose_one
 E  rec_s51_edge_25_31_choose_one
 E  rec_s51_edge_26_27_choose_one
 E  rec_s51_edge_27_28_choose_one
 E  rec_s51_edge_28_25_choose_one
 E  rec_s51_edge_29_7_choose_one
 E  rec_s51_edge_30_29_choose_one
 E  rec_s51_edge_31_30_choose_one
 E  rec_s51_edge_32_40_choose_one
 E  rec_s51_edge_33_35_choose_one
 E  rec_s51_edge_34_33_choose_one
 E  rec_s51_edge_35_32_choose_one
 E  rec_s51_edge_36_49_choose_one
 E  rec_s51_edge_37_39_choose_one
 E  rec_s51_edge_38_15_choose_one
 E  rec_s51_edge_39_53_choose_one
 E  rec_s51_edge_40_37_choose_one
 E  rec_s51_edge_41_4_choose_one
 E  rec_s51_edge_42_44_choose_one
 E  rec_s51_edge_43_19_choose_one
 E  rec_s51_edge_44_50_choose_one
 E  rec_s51_edge_45_18_choose_one
 E  rec_s51_edge_46_42_choose_one
 E  rec_s51_edge_47_41_choose_one
 E  rec_s51_edge_48_51_choose_one
 E  rec_s51_edge_49_26_choose_one
 E  rec_s51_edge_50_48_choose_one
 E  rec_s51_edge_51_36_choose_one
 E  rec_s51_edge_52_47_choose_one
 E  rec_s51_edge_53_43_choose_one
 E  rec_s61_edge_0_2_choose_one
 E  rec_s61_edge_1_22_choose_one
 E  rec_s61_edge_2_1_choose_one
 E  rec_s61_edge_3_9_choose_one
 E  rec_s61_edge_4_34_choose_one
 E  rec_s61_edge_5_0_choose_one
 E  rec_s61_edge_6_52_choose_one
 E  rec_s61_edge_7_3_choose_one
 E  rec_s61_edge_8_10_choose_one
 E  rec_s61_edge_9_6_choose_one
 E  rec_s61_edge_10_5_choose_one
 E  rec_s61_edge_11_8_choose_one
 E  rec_s61_edge_12_11_choose_one
 E  rec_s61_edge_13_14_choose_one
 E  rec_s61_edge_14_12_choose_one
 E  rec_s61_edge_15_13_choose_one
 E  rec_s61_edge_16_17_choose_one
 E  rec_s61_edge_17_38_choose_one
 E  rec_s61_edge_18_20_choose_one
 E  rec_s61_edge_19_45_choose_one
 E  rec_s61_edge_20_16_choose_one
 E  rec_s61_edge_21_24_choose_one
 E  rec_s61_edge_22_21_choose_one
 E  rec_s61_edge_23_46_choose_one
 E  rec_s61_edge_24_23_choose_one
 E  rec_s61_edge_25_31_choose_one
 E  rec_s61_edge_26_27_choose_one
 E  rec_s61_edge_27_28_choose_one
 E  rec_s61_edge_28_25_choose_one
 E  rec_s61_edge_29_7_choose_one
 E  rec_s61_edge_30_29_choose_one
 E  rec_s61_edge_31_30_choose_one
 E  rec_s61_edge_32_40_choose_one
 E  rec_s61_edge_33_35_choose_one
 E  rec_s61_edge_34_33_choose_one
 E  rec_s61_edge_35_32_choose_one
 E  rec_s61_edge_36_49_choose_one
 E  rec_s61_edge_37_39_choose_one
 E  rec_s61_edge_38_15_choose_one
 E  rec_s61_edge_39_53_choose_one
 E  rec_s61_edge_40_37_choose_one
 E  rec_s61_edge_41_4_choose_one
 E  rec_s61_edge_42_44_choose_one
 E  rec_s61_edge_43_19_choose_one
 E  rec_s61_edge_44_50_choose_one
 E  rec_s61_edge_45_18_choose_one
 E  rec_s61_edge_46_42_choose_one
 E  rec_s61_edge_47_41_choose_one
 E  rec_s61_edge_48_51_choose_one
 E  rec_s61_edge_49_26_choose_one
 E  rec_s61_edge_50_48_choose_one
 E  rec_s61_edge_51_36_choose_one
 E  rec_s61_edge_52_47_choose_one
 E  rec_s61_edge_53_43_choose_one
 E  rec_s81_edge_0_2_choose_one
 E  rec_s81_edge_1_22_choose_one
 E  rec_s81_edge_2_1_choose_one
 E  rec_s81_edge_3_9_choose_one
 E  rec_s81_edge_4_34_choose_one
 E  rec_s81_edge_5_0_choose_one
 E  rec_s81_edge_6_52_choose_one
 E  rec_s81_edge_7_3_choose_one
 E  rec_s81_edge_8_10_choose_one
 E  rec_s81_edge_9_6_choose_one
 E  rec_s81_edge_10_5_choose_one
 E  rec_s81_edge_11_8_choose_one
 E  rec_s81_edge_12_11_choose_one
 E  rec_s81_edge_13_14_choose_one
 E  rec_s81_edge_14_12_choose_one
 E  rec_s81_edge_15_13_choose_one
 E  rec_s81_edge_16_17_choose_one
 E  rec_s81_edge_17_38_choose_one
 E  rec_s81_edge_18_20_choose_one
 E  rec_s81_edge_19_45_choose_one
 E  rec_s81_edge_20_16_choose_one
 E  rec_s81_edge_21_24_choose_one
 E  rec_s81_edge_22_21_choose_one
 E  rec_s81_edge_23_46_choose_one
 E  rec_s81_edge_24_23_choose_one
 E  rec_s81_edge_25_31_choose_one
 E  rec_s81_edge_26_27_choose_one
 E  rec_s81_edge_27_28_choose_one
 E  rec_s81_edge_28_25_choose_one
 E  rec_s81_edge_29_7_choose_one
 E  rec_s81_edge_30_29_choose_one
 E  rec_s81_edge_31_30_choose_one
 E  rec_s81_edge_32_40_choose_one
 E  rec_s81_edge_33_35_choose_one
 E  rec_s81_edge_34_33_choose_one
 E  rec_s81_edge_35_32_choose_one
 E  rec_s81_edge_36_49_choose_one
 E  rec_s81_edge_37_39_choose_one
 E  rec_s81_edge_38_15_choose_one
 E  rec_s81_edge_39_53_choose_one
 E  rec_s81_edge_40_37_choose_one
 E  rec_s81_edge_41_4_choose_one
 E  rec_s81_edge_42_44_choose_one
 E  rec_s81_edge_43_19_choose_one
 E  rec_s81_edge_44_50_choose_one
 E  rec_s81_edge_45_18_choose_one
 E  rec_s81_edge_46_42_choose_one
 E  rec_s81_edge_47_41_choose_one
 E  rec_s81_edge_48_51_choose_one
 E  rec_s81_edge_49_26_choose_one
 E  rec_s81_edge_50_48_choose_one
 E  rec_s81_edge_51_36_choose_one
 E  rec_s81_edge_52_47_choose_one
 E  rec_s81_edge_53_43_choose_one
 E  rec_s9_edge_0_2_choose_one
 E  rec_s9_edge_1_22_choose_one
 E  rec_s9_edge_2_1_choose_one
 E  rec_s9_edge_3_9_choose_one
 E  rec_s9_edge_4_34_choose_one
 E  rec_s9_edge_5_0_choose_one
 E  rec_s9_edge_6_52_choose_one
 E  rec_s9_edge_7_3_choose_one
 E  rec_s9_edge_8_10_choose_one
 E  rec_s9_edge_9_6_choose_one
 E  rec_s9_edge_10_5_choose_one
 E  rec_s9_edge_11_8_choose_one
 E  rec_s9_edge_12_11_choose_one
 E  rec_s9_edge_13_14_choose_one
 E  rec_s9_edge_14_12_choose_one
 E  rec_s9_edge_15_13_choose_one
 E  rec_s9_edge_16_17_choose_one
 E  rec_s9_edge_17_38_choose_one
 E  rec_s9_edge_18_20_choose_one
 E  rec_s9_edge_19_45_choose_one
 E  rec_s9_edge_20_16_choose_one
 E  rec_s9_edge_21_24_choose_one
 E  rec_s9_edge_22_21_choose_one
 E  rec_s9_edge_23_46_choose_one
 E  rec_s9_edge_24_23_choose_one
 E  rec_s9_edge_25_31_choose_one
 E  rec_s9_edge_26_27_choose_one
 E  rec_s9_edge_27_28_choose_one
 E  rec_s9_edge_28_25_choose_one
 E  rec_s9_edge_29_7_choose_one
 E  rec_s9_edge_30_29_choose_one
 E  rec_s9_edge_31_30_choose_one
 E  rec_s9_edge_32_40_choose_one
 E  rec_s9_edge_33_35_choose_one
 E  rec_s9_edge_34_33_choose_one
 E  rec_s9_edge_35_32_choose_one
 E  rec_s9_edge_36_49_choose_one
 E  rec_s9_edge_37_39_choose_one
 E  rec_s9_edge_38_15_choose_one
 E  rec_s9_edge_39_53_choose_one
 E  rec_s9_edge_40_37_choose_one
 E  rec_s9_edge_41_4_choose_one
 E  rec_s9_edge_42_44_choose_one
 E  rec_s9_edge_43_19_choose_one
 E  rec_s9_edge_44_50_choose_one
 E  rec_s9_edge_45_18_choose_one
 E  rec_s9_edge_46_42_choose_one
 E  rec_s9_edge_47_41_choose_one
 E  rec_s9_edge_48_51_choose_one
 E  rec_s9_edge_49_26_choose_one
 E  rec_s9_edge_50_48_choose_one
 E  rec_s9_edge_51_36_choose_one
 E  rec_s9_edge_52_47_choose_one
 E  rec_s9_edge_53_43_choose_one
 E  rec_s63_edge_0_2_choose_one
 E  rec_s63_edge_1_22_choose_one
 E  rec_s63_edge_2_1_choose_one
 E  rec_s63_edge_3_9_choose_one
 E  rec_s63_edge_4_34_choose_one
 E  rec_s63_edge_5_0_choose_one
 E  rec_s63_edge_6_52_choose_one
 E  rec_s63_edge_7_3_choose_one
 E  rec_s63_edge_8_10_choose_one
 E  rec_s63_edge_9_6_choose_one
 E  rec_s63_edge_10_5_choose_one
 E  rec_s63_edge_11_8_choose_one
 E  rec_s63_edge_12_11_choose_one
 E  rec_s63_edge_13_14_choose_one
 E  rec_s63_edge_14_12_choose_one
 E  rec_s63_edge_15_13_choose_one
 E  rec_s63_edge_16_17_choose_one
 E  rec_s63_edge_17_38_choose_one
 E  rec_s63_edge_18_20_choose_one
 E  rec_s63_edge_19_45_choose_one
 E  rec_s63_edge_20_16_choose_one
 E  rec_s63_edge_21_24_choose_one
 E  rec_s63_edge_22_21_choose_one
 E  rec_s63_edge_23_46_choose_one
 E  rec_s63_edge_24_23_choose_one
 E  rec_s63_edge_25_31_choose_one
 E  rec_s63_edge_26_27_choose_one
 E  rec_s63_edge_27_28_choose_one
 E  rec_s63_edge_28_25_choose_one
 E  rec_s63_edge_29_7_choose_one
 E  rec_s63_edge_30_29_choose_one
 E  rec_s63_edge_31_30_choose_one
 E  rec_s63_edge_32_40_choose_one
 E  rec_s63_edge_33_35_choose_one
 E  rec_s63_edge_34_33_choose_one
 E  rec_s63_edge_35_32_choose_one
 E  rec_s63_edge_36_49_choose_one
 E  rec_s63_edge_37_39_choose_one
 E  rec_s63_edge_38_15_choose_one
 E  rec_s63_edge_39_53_choose_one
 E  rec_s63_edge_40_37_choose_one
 E  rec_s63_edge_41_4_choose_one
 E  rec_s63_edge_42_44_choose_one
 E  rec_s63_edge_43_19_choose_one
 E  rec_s63_edge_44_50_choose_one
 E  rec_s63_edge_45_18_choose_one
 E  rec_s63_edge_46_42_choose_one
 E  rec_s63_edge_47_41_choose_one
 E  rec_s63_edge_48_51_choose_one
 E  rec_s63_edge_49_26_choose_one
 E  rec_s63_edge_50_48_choose_one
 E  rec_s63_edge_51_36_choose_one
 E  rec_s63_edge_52_47_choose_one
 E  rec_s63_edge_53_43_choose_one
 E  rec_s43_edge_0_2_choose_one
 E  rec_s43_edge_1_22_choose_one
 E  rec_s43_edge_2_1_choose_one
 E  rec_s43_edge_3_9_choose_one
 E  rec_s43_edge_4_34_choose_one
 E  rec_s43_edge_5_0_choose_one
 E  rec_s43_edge_6_52_choose_one
 E  rec_s43_edge_7_3_choose_one
 E  rec_s43_edge_8_10_choose_one
 E  rec_s43_edge_9_6_choose_one
 E  rec_s43_edge_10_5_choose_one
 E  rec_s43_edge_11_8_choose_one
 E  rec_s43_edge_12_11_choose_one
 E  rec_s43_edge_13_14_choose_one
 E  rec_s43_edge_14_12_choose_one
 E  rec_s43_edge_15_13_choose_one
 E  rec_s43_edge_16_17_choose_one
 E  rec_s43_edge_17_38_choose_one
 E  rec_s43_edge_18_20_choose_one
 E  rec_s43_edge_19_45_choose_one
 E  rec_s43_edge_20_16_choose_one
 E  rec_s43_edge_21_24_choose_one
 E  rec_s43_edge_22_21_choose_one
 E  rec_s43_edge_23_46_choose_one
 E  rec_s43_edge_24_23_choose_one
 E  rec_s43_edge_25_31_choose_one
 E  rec_s43_edge_26_27_choose_one
 E  rec_s43_edge_27_28_choose_one
 E  rec_s43_edge_28_25_choose_one
 E  rec_s43_edge_29_7_choose_one
 E  rec_s43_edge_30_29_choose_one
 E  rec_s43_edge_31_30_choose_one
 E  rec_s43_edge_32_40_choose_one
 E  rec_s43_edge_33_35_choose_one
 E  rec_s43_edge_34_33_choose_one
 E  rec_s43_edge_35_32_choose_one
 E  rec_s43_edge_36_49_choose_one
 E  rec_s43_edge_37_39_choose_one
 E  rec_s43_edge_38_15_choose_one
 E  rec_s43_edge_39_53_choose_one
 E  rec_s43_edge_40_37_choose_one
 E  rec_s43_edge_41_4_choose_one
 E  rec_s43_edge_42_44_choose_one
 E  rec_s43_edge_43_19_choose_one
 E  rec_s43_edge_44_50_choose_one
 E  rec_s43_edge_45_18_choose_one
 E  rec_s43_edge_46_42_choose_one
 E  rec_s43_edge_47_41_choose_one
 E  rec_s43_edge_48_51_choose_one
 E  rec_s43_edge_49_26_choose_one
 E  rec_s43_edge_50_48_choose_one
 E  rec_s43_edge_51_36_choose_one
 E  rec_s43_edge_52_47_choose_one
 E  rec_s43_edge_53_43_choose_one
 E  rec_s72_edge_0_2_choose_one
 E  rec_s72_edge_1_22_choose_one
 E  rec_s72_edge_2_1_choose_one
 E  rec_s72_edge_3_9_choose_one
 E  rec_s72_edge_4_34_choose_one
 E  rec_s72_edge_5_0_choose_one
 E  rec_s72_edge_6_52_choose_one
 E  rec_s72_edge_7_3_choose_one
 E  rec_s72_edge_8_10_choose_one
 E  rec_s72_edge_9_6_choose_one
 E  rec_s72_edge_10_5_choose_one
 E  rec_s72_edge_11_8_choose_one
 E  rec_s72_edge_12_11_choose_one
 E  rec_s72_edge_13_14_choose_one
 E  rec_s72_edge_14_12_choose_one
 E  rec_s72_edge_15_13_choose_one
 E  rec_s72_edge_16_17_choose_one
 E  rec_s72_edge_17_38_choose_one
 E  rec_s72_edge_18_20_choose_one
 E  rec_s72_edge_19_45_choose_one
 E  rec_s72_edge_20_16_choose_one
 E  rec_s72_edge_21_24_choose_one
 E  rec_s72_edge_22_21_choose_one
 E  rec_s72_edge_23_46_choose_one
 E  rec_s72_edge_24_23_choose_one
 E  rec_s72_edge_25_31_choose_one
 E  rec_s72_edge_26_27_choose_one
 E  rec_s72_edge_27_28_choose_one
 E  rec_s72_edge_28_25_choose_one
 E  rec_s72_edge_29_7_choose_one
 E  rec_s72_edge_30_29_choose_one
 E  rec_s72_edge_31_30_choose_one
 E  rec_s72_edge_32_40_choose_one
 E  rec_s72_edge_33_35_choose_one
 E  rec_s72_edge_34_33_choose_one
 E  rec_s72_edge_35_32_choose_one
 E  rec_s72_edge_36_49_choose_one
 E  rec_s72_edge_37_39_choose_one
 E  rec_s72_edge_38_15_choose_one
 E  rec_s72_edge_39_53_choose_one
 E  rec_s72_edge_40_37_choose_one
 E  rec_s72_edge_41_4_choose_one
 E  rec_s72_edge_42_44_choose_one
 E  rec_s72_edge_43_19_choose_one
 E  rec_s72_edge_44_50_choose_one
 E  rec_s72_edge_45_18_choose_one
 E  rec_s72_edge_46_42_choose_one
 E  rec_s72_edge_47_41_choose_one
 E  rec_s72_edge_48_51_choose_one
 E  rec_s72_edge_49_26_choose_one
 E  rec_s72_edge_50_48_choose_one
 E  rec_s72_edge_51_36_choose_one
 E  rec_s72_edge_52_47_choose_one
 E  rec_s72_edge_53_43_choose_one
 L  budget_K
COLUMNS
    MARKER    'MARKER'                 'INTORG'
    y_s67_i0_j2_k0  rec_s67_edge_0_2_choose_one  1
    y_s67_i0_j2_k0  budget_K  0.08
    y_s67_i0_j2_k1  rec_s67_edge_0_2_choose_one  1
    y_s67_i0_j2_k1  budget_K  -0.38
    y_s67_i0_j2_k2  rec_s67_edge_0_2_choose_one  1
    y_s67_i0_j2_k2  budget_K  1.74
    y_s67_i1_j22_k0  rec_s67_edge_1_22_choose_one  1
    y_s67_i1_j22_k0  budget_K  -3.48
    y_s67_i1_j22_k1  rec_s67_edge_1_22_choose_one  1
    y_s67_i1_j22_k1  budget_K  -4.46
    y_s67_i1_j22_k2  rec_s67_edge_1_22_choose_one  1
    y_s67_i1_j22_k2  budget_K  -5.4
    y_s67_i2_j1_k0  rec_s67_edge_2_1_choose_one  1
    y_s67_i2_j1_k0  budget_K  -0.45
    y_s67_i2_j1_k1  rec_s67_edge_2_1_choose_one  1
    y_s67_i2_j1_k1  budget_K  -1.33
    y_s67_i2_j1_k2  rec_s67_edge_2_1_choose_one  1
    y_s67_i2_j1_k2  budget_K  -1.4000000000000001e+00
    y_s67_i3_j9_k0  rec_s67_edge_3_9_choose_one  1
    y_s67_i3_j9_k0  budget_K  -0.36
    y_s67_i3_j9_k1  rec_s67_edge_3_9_choose_one  1
    y_s67_i3_j9_k1  budget_K  36.25
    y_s67_i3_j9_k2  rec_s67_edge_3_9_choose_one  1
    y_s67_i3_j9_k2  budget_K  -9.41
    y_s67_i4_j34_k0  rec_s67_edge_4_34_choose_one  1
    y_s67_i4_j34_k0  budget_K  -15.49
    y_s67_i4_j34_k1  rec_s67_edge_4_34_choose_one  1
    y_s67_i4_j34_k1  budget_K  -1.9330000000000002e+01
    y_s67_i4_j34_k2  rec_s67_edge_4_34_choose_one  1
    y_s67_i4_j34_k2  budget_K  -16.19
    y_s67_i5_j0_k0  rec_s67_edge_5_0_choose_one  1
    y_s67_i5_j0_k0  budget_K  2.9060000000000002e+01
    y_s67_i5_j0_k1  rec_s67_edge_5_0_choose_one  1
    y_s67_i5_j0_k1  budget_K  -5.94
    y_s67_i5_j0_k2  rec_s67_edge_5_0_choose_one  1
    y_s67_i5_j0_k2  budget_K  -6.01
    y_s67_i6_j52_k0  rec_s67_edge_6_52_choose_one  1
    y_s67_i6_j52_k0  budget_K  -5.94
    y_s67_i6_j52_k1  rec_s67_edge_6_52_choose_one  1
    y_s67_i6_j52_k1  budget_K  6.05
    y_s67_i6_j52_k2  rec_s67_edge_6_52_choose_one  1
    y_s67_i6_j52_k2  budget_K  -6.49
    y_s67_i7_j3_k0  rec_s67_edge_7_3_choose_one  1
    y_s67_i7_j3_k0  budget_K  -2.2
    y_s67_i7_j3_k1  rec_s67_edge_7_3_choose_one  1
    y_s67_i7_j3_k1  budget_K  -0.71
    y_s67_i7_j3_k2  rec_s67_edge_7_3_choose_one  1
    y_s67_i7_j3_k2  budget_K  -3.06
    y_s67_i8_j10_k0  rec_s67_edge_8_10_choose_one  1
    y_s67_i8_j10_k0  budget_K  -3.8200000000000003e+00
    y_s67_i8_j10_k1  rec_s67_edge_8_10_choose_one  1
    y_s67_i8_j10_k1  budget_K  -4.95
    y_s67_i8_j10_k2  rec_s67_edge_8_10_choose_one  1
    y_s67_i8_j10_k2  budget_K  -4.13
    y_s67_i9_j6_k0  rec_s67_edge_9_6_choose_one  1
    y_s67_i9_j6_k0  budget_K  -10.36
    y_s67_i9_j6_k1  rec_s67_edge_9_6_choose_one  1
    y_s67_i9_j6_k1  budget_K  -6.44
    y_s67_i9_j6_k2  rec_s67_edge_9_6_choose_one  1
    y_s67_i9_j6_k2  budget_K  74.61
    y_s67_i10_j5_k0  rec_s67_edge_10_5_choose_one  1
    y_s67_i10_j5_k0  budget_K  -4.96
    y_s67_i10_j5_k1  rec_s67_edge_10_5_choose_one  1
    y_s67_i10_j5_k1  budget_K  0.81
    y_s67_i10_j5_k2  rec_s67_edge_10_5_choose_one  1
    y_s67_i10_j5_k2  budget_K  -4.55
    y_s67_i11_j8_k0  rec_s67_edge_11_8_choose_one  1
    y_s67_i11_j8_k0  budget_K  -3.63
    y_s67_i11_j8_k1  rec_s67_edge_11_8_choose_one  1
    y_s67_i11_j8_k1  budget_K  1.93
    y_s67_i11_j8_k2  rec_s67_edge_11_8_choose_one  1
    y_s67_i11_j8_k2  budget_K  -2.16
    y_s67_i12_j11_k0  rec_s67_edge_12_11_choose_one  1
    y_s67_i12_j11_k0  budget_K  5.7000000000000006e-01
    y_s67_i12_j11_k1  rec_s67_edge_12_11_choose_one  1
    y_s67_i12_j11_k1  budget_K  6.94
    y_s67_i12_j11_k2  rec_s67_edge_12_11_choose_one  1
    y_s67_i12_j11_k2  budget_K  -1.61
    y_s67_i13_j14_k0  rec_s67_edge_13_14_choose_one  1
    y_s67_i13_j14_k0  budget_K  0.29
    y_s67_i13_j14_k1  rec_s67_edge_13_14_choose_one  1
    y_s67_i13_j14_k1  budget_K  -2.72
    y_s67_i13_j14_k2  rec_s67_edge_13_14_choose_one  1
    y_s67_i13_j14_k2  budget_K  4.86
    y_s67_i14_j12_k0  rec_s67_edge_14_12_choose_one  1
    y_s67_i14_j12_k0  budget_K  -9.0400000000000009e+00
    y_s67_i14_j12_k1  rec_s67_edge_14_12_choose_one  1
    y_s67_i14_j12_k1  budget_K  -6.38
    y_s67_i14_j12_k2  rec_s67_edge_14_12_choose_one  1
    y_s67_i14_j12_k2  budget_K  -3.99
    y_s67_i15_j13_k0  rec_s67_edge_15_13_choose_one  1
    y_s67_i15_j13_k0  budget_K  -9.3
    y_s67_i15_j13_k1  rec_s67_edge_15_13_choose_one  1
    y_s67_i15_j13_k1  budget_K  71.77
    y_s67_i15_j13_k2  rec_s67_edge_15_13_choose_one  1
    y_s67_i15_j13_k2  budget_K  -11.18
    y_s67_i16_j17_k0  rec_s67_edge_16_17_choose_one  1
    y_s67_i16_j17_k0  budget_K  -2.11
    y_s67_i16_j17_k1  rec_s67_edge_16_17_choose_one  1
    y_s67_i16_j17_k1  budget_K  -4.88
    y_s67_i16_j17_k2  rec_s67_edge_16_17_choose_one  1
    y_s67_i16_j17_k2  budget_K  -4.0200000000000005e+00
    y_s67_i17_j38_k0  rec_s67_edge_17_38_choose_one  1
    y_s67_i17_j38_k0  budget_K  9.61
    y_s67_i17_j38_k1  rec_s67_edge_17_38_choose_one  1
    y_s67_i17_j38_k1  budget_K  -2.12
    y_s67_i17_j38_k2  rec_s67_edge_17_38_choose_one  1
    y_s67_i17_j38_k2  budget_K  -8.2000000000000006e-01
    y_s67_i18_j20_k0  rec_s67_edge_18_20_choose_one  1
    y_s67_i18_j20_k0  budget_K  -7.0000000000000007e-01
    y_s67_i18_j20_k1  rec_s67_edge_18_20_choose_one  1
    y_s67_i18_j20_k1  budget_K  6.67
    y_s67_i18_j20_k2  rec_s67_edge_18_20_choose_one  1
    y_s67_i18_j20_k2  budget_K  -3.5000000000000003e-01
    y_s67_i19_j45_k0  rec_s67_edge_19_45_choose_one  1
    y_s67_i19_j45_k0  budget_K  -1.97
    y_s67_i19_j45_k1  rec_s67_edge_19_45_choose_one  1
    y_s67_i19_j45_k1  budget_K  -2.15
    y_s67_i19_j45_k2  rec_s67_edge_19_45_choose_one  1
    y_s67_i19_j45_k2  budget_K  -1.86
    y_s67_i20_j16_k0  rec_s67_edge_20_16_choose_one  1
    y_s67_i20_j16_k0  budget_K  -13.41
    y_s67_i20_j16_k1  rec_s67_edge_20_16_choose_one  1
    y_s67_i20_j16_k1  budget_K  -1.2950000000000001e+01
    y_s67_i20_j16_k2  rec_s67_edge_20_16_choose_one  1
    y_s67_i20_j16_k2  budget_K  -6.8
    y_s67_i21_j24_k0  rec_s67_edge_21_24_choose_one  1
    y_s67_i21_j24_k0  budget_K  -4.69
    y_s67_i21_j24_k1  rec_s67_edge_21_24_choose_one  1
    y_s67_i21_j24_k1  budget_K  -2.98
    y_s67_i21_j24_k2  rec_s67_edge_21_24_choose_one  1
    y_s67_i21_j24_k2  budget_K  26.98
    y_s67_i22_j21_k0  rec_s67_edge_22_21_choose_one  1
    y_s67_i22_j21_k0  budget_K  -0.88
    y_s67_i22_j21_k1  rec_s67_edge_22_21_choose_one  1
    y_s67_i22_j21_k1  budget_K  9.91
    y_s67_i22_j21_k2  rec_s67_edge_22_21_choose_one  1
    y_s67_i22_j21_k2  budget_K  6.28
    y_s67_i23_j46_k0  rec_s67_edge_23_46_choose_one  1
    y_s67_i23_j46_k0  budget_K  -8.6200000000000010e+00
    y_s67_i23_j46_k1  rec_s67_edge_23_46_choose_one  1
    y_s67_i23_j46_k1  budget_K  -12.6
    y_s67_i23_j46_k2  rec_s67_edge_23_46_choose_one  1
    y_s67_i23_j46_k2  budget_K  -2.2800000000000002e+00
    y_s67_i24_j23_k0  rec_s67_edge_24_23_choose_one  1
    y_s67_i24_j23_k0  budget_K  -0.4
    y_s67_i24_j23_k1  rec_s67_edge_24_23_choose_one  1
    y_s67_i24_j23_k1  budget_K  1.03
    y_s67_i24_j23_k2  rec_s67_edge_24_23_choose_one  1
    y_s67_i24_j23_k2  budget_K  -2.67
    y_s67_i25_j31_k0  rec_s67_edge_25_31_choose_one  1
    y_s67_i25_j31_k0  budget_K  -5.17
    y_s67_i25_j31_k1  rec_s67_edge_25_31_choose_one  1
    y_s67_i25_j31_k1  budget_K  -5.76
    y_s67_i25_j31_k2  rec_s67_edge_25_31_choose_one  1
    y_s67_i25_j31_k2  budget_K  18.54
    y_s67_i26_j27_k0  rec_s67_edge_26_27_choose_one  1
    y_s67_i26_j27_k0  budget_K  -2.6
    y_s67_i26_j27_k1  rec_s67_edge_26_27_choose_one  1
    y_s67_i26_j27_k1  budget_K  -1.95
    y_s67_i26_j27_k2  rec_s67_edge_26_27_choose_one  1
    y_s67_i26_j27_k2  budget_K  -2.73
    y_s67_i27_j28_k0  rec_s67_edge_27_28_choose_one  1
    y_s67_i27_j28_k0  budget_K  18.89
    y_s67_i27_j28_k1  rec_s67_edge_27_28_choose_one  1
    y_s67_i27_j28_k1  budget_K  -6.83
    y_s67_i27_j28_k2  rec_s67_edge_27_28_choose_one  1
    y_s67_i27_j28_k2  budget_K  -7.9
    y_s67_i28_j25_k0  rec_s67_edge_28_25_choose_one  1
    y_s67_i28_j25_k0  budget_K  -4.96
    y_s67_i28_j25_k1  rec_s67_edge_28_25_choose_one  1
    y_s67_i28_j25_k1  budget_K  1.58
    y_s67_i28_j25_k2  rec_s67_edge_28_25_choose_one  1
    y_s67_i28_j25_k2  budget_K  -6.3100000000000005e+00
    y_s67_i29_j7_k0  rec_s67_edge_29_7_choose_one  1
    y_s67_i29_j7_k0  budget_K  -1.9000000000000001e+00
    y_s67_i29_j7_k1  rec_s67_edge_29_7_choose_one  1
    y_s67_i29_j7_k1  budget_K  86.18
    y_s67_i29_j7_k2  rec_s67_edge_29_7_choose_one  1
    y_s67_i29_j7_k2  budget_K  -5.74
    y_s67_i30_j29_k0  rec_s67_edge_30_29_choose_one  1
    y_s67_i30_j29_k0  budget_K  -1.04
    y_s67_i30_j29_k1  rec_s67_edge_30_29_choose_one  1
    y_s67_i30_j29_k1  budget_K  2.31
    y_s67_i30_j29_k2  rec_s67_edge_30_29_choose_one  1
    y_s67_i30_j29_k2  budget_K  -2.83
    y_s67_i31_j30_k0  rec_s67_edge_31_30_choose_one  1
    y_s67_i31_j30_k0  budget_K  2.0100000000000002e+00
    y_s67_i31_j30_k1  rec_s67_edge_31_30_choose_one  1
    y_s67_i31_j30_k1  budget_K  -3.84
    y_s67_i31_j30_k2  rec_s67_edge_31_30_choose_one  1
    y_s67_i31_j30_k2  budget_K  -1.77
    y_s67_i32_j40_k0  rec_s67_edge_32_40_choose_one  1
    y_s67_i32_j40_k0  budget_K  -32.33
    y_s67_i32_j40_k1  rec_s67_edge_32_40_choose_one  1
    y_s67_i32_j40_k1  budget_K  3.4160000000000004e+01
    y_s67_i32_j40_k2  rec_s67_edge_32_40_choose_one  1
    y_s67_i32_j40_k2  budget_K  -28.42
    y_s67_i33_j35_k0  rec_s67_edge_33_35_choose_one  1
    y_s67_i33_j35_k0  budget_K  -4.46
    y_s67_i33_j35_k1  rec_s67_edge_33_35_choose_one  1
    y_s67_i33_j35_k1  budget_K  -3.6
    y_s67_i33_j35_k2  rec_s67_edge_33_35_choose_one  1
    y_s67_i33_j35_k2  budget_K  -5.21
    y_s67_i34_j33_k0  rec_s67_edge_34_33_choose_one  1
    y_s67_i34_j33_k0  budget_K  -12.17
    y_s67_i34_j33_k1  rec_s67_edge_34_33_choose_one  1
    y_s67_i34_j33_k1  budget_K  0.1
    y_s67_i34_j33_k2  rec_s67_edge_34_33_choose_one  1
    y_s67_i34_j33_k2  budget_K  -12.51
    y_s67_i35_j32_k0  rec_s67_edge_35_32_choose_one  1
    y_s67_i35_j32_k0  budget_K  8.7900000000000009e+00
    y_s67_i35_j32_k1  rec_s67_edge_35_32_choose_one  1
    y_s67_i35_j32_k1  budget_K  -16.72
    y_s67_i35_j32_k2  rec_s67_edge_35_32_choose_one  1
    y_s67_i35_j32_k2  budget_K  -10.33
    y_s67_i36_j49_k0  rec_s67_edge_36_49_choose_one  1
    y_s67_i36_j49_k0  budget_K  -3
    y_s67_i36_j49_k1  rec_s67_edge_36_49_choose_one  1
    y_s67_i36_j49_k1  budget_K  -3.22
    y_s67_i36_j49_k2  rec_s67_edge_36_49_choose_one  1
    y_s67_i36_j49_k2  budget_K  -1.85
    y_s67_i37_j39_k0  rec_s67_edge_37_39_choose_one  1
    y_s67_i37_j39_k0  budget_K  -48.67
    y_s67_i37_j39_k1  rec_s67_edge_37_39_choose_one  1
    y_s67_i37_j39_k1  budget_K  -38.75
    y_s67_i37_j39_k2  rec_s67_edge_37_39_choose_one  1
    y_s67_i37_j39_k2  budget_K  -4.3910000000000004e+01
    y_s67_i38_j15_k0  rec_s67_edge_38_15_choose_one  1
    y_s67_i38_j15_k0  budget_K  -8.47
    y_s67_i38_j15_k1  rec_s67_edge_38_15_choose_one  1
    y_s67_i38_j15_k1  budget_K  7.37
    y_s67_i38_j15_k2  rec_s67_edge_38_15_choose_one  1
    y_s67_i38_j15_k2  budget_K  -5.3
    y_s67_i39_j53_k0  rec_s67_edge_39_53_choose_one  1
    y_s67_i39_j53_k0  budget_K  -31.64
    y_s67_i39_j53_k1  rec_s67_edge_39_53_choose_one  1
    y_s67_i39_j53_k1  budget_K  -18.85
    y_s67_i39_j53_k2  rec_s67_edge_39_53_choose_one  1
    y_s67_i39_j53_k2  budget_K  -14.19
    y_s67_i40_j37_k0  rec_s67_edge_40_37_choose_one  1
    y_s67_i40_j37_k0  budget_K  -32.4
    y_s67_i40_j37_k1  rec_s67_edge_40_37_choose_one  1
    y_s67_i40_j37_k1  budget_K  -24.34
    y_s67_i40_j37_k2  rec_s67_edge_40_37_choose_one  1
    y_s67_i40_j37_k2  budget_K  -21.98
    y_s67_i41_j4_k0  rec_s67_edge_41_4_choose_one  1
    y_s67_i41_j4_k0  budget_K  -5.62
    y_s67_i41_j4_k1  rec_s67_edge_41_4_choose_one  1
    y_s67_i41_j4_k1  budget_K  -4.39
    y_s67_i41_j4_k2  rec_s67_edge_41_4_choose_one  1
    y_s67_i41_j4_k2  budget_K  -4.25
    y_s67_i42_j44_k0  rec_s67_edge_42_44_choose_one  1
    y_s67_i42_j44_k0  budget_K  -9.72
    y_s67_i42_j44_k1  rec_s67_edge_42_44_choose_one  1
    y_s67_i42_j44_k1  budget_K  -7.63
    y_s67_i42_j44_k2  rec_s67_edge_42_44_choose_one  1
    y_s67_i42_j44_k2  budget_K  22.84
    y_s67_i43_j19_k0  rec_s67_edge_43_19_choose_one  1
    y_s67_i43_j19_k0  budget_K  4.93
    y_s67_i43_j19_k1  rec_s67_edge_43_19_choose_one  1
    y_s67_i43_j19_k1  budget_K  -13.46
    y_s67_i43_j19_k2  rec_s67_edge_43_19_choose_one  1
    y_s67_i43_j19_k2  budget_K  -17.42
    y_s67_i44_j50_k0  rec_s67_edge_44_50_choose_one  1
    y_s67_i44_j50_k0  budget_K  8.6960000000000008e+01
    y_s67_i44_j50_k1  rec_s67_edge_44_50_choose_one  1
    y_s67_i44_j50_k1  budget_K  52.99
    y_s67_i44_j50_k2  rec_s67_edge_44_50_choose_one  1
    y_s67_i44_j50_k2  budget_K  133.81
    y_s67_i45_j18_k0  rec_s67_edge_45_18_choose_one  1
    y_s67_i45_j18_k0  budget_K  -2.24
    y_s67_i45_j18_k1  rec_s67_edge_45_18_choose_one  1
    y_s67_i45_j18_k1  budget_K  -4.79
    y_s67_i45_j18_k2  rec_s67_edge_45_18_choose_one  1
    y_s67_i45_j18_k2  budget_K  -5.09
    y_s67_i46_j42_k0  rec_s67_edge_46_42_choose_one  1
    y_s67_i46_j42_k0  budget_K  -8.21
    y_s67_i46_j42_k1  rec_s67_edge_46_42_choose_one  1
    y_s67_i46_j42_k1  budget_K  -5.74
    y_s67_i46_j42_k2  rec_s67_edge_46_42_choose_one  1
    y_s67_i46_j42_k2  budget_K  6.03
    y_s67_i47_j41_k0  rec_s67_edge_47_41_choose_one  1
    y_s67_i47_j41_k0  budget_K  -5.91
    y_s67_i47_j41_k1  rec_s67_edge_47_41_choose_one  1
    y_s67_i47_j41_k1  budget_K  -3.98
    y_s67_i47_j41_k2  rec_s67_edge_47_41_choose_one  1
    y_s67_i47_j41_k2  budget_K  -15.44
    y_s67_i48_j51_k0  rec_s67_edge_48_51_choose_one  1
    y_s67_i48_j51_k0  budget_K  -11.21
    y_s67_i48_j51_k1  rec_s67_edge_48_51_choose_one  1
    y_s67_i48_j51_k1  budget_K  14.65
    y_s67_i48_j51_k2  rec_s67_edge_48_51_choose_one  1
    y_s67_i48_j51_k2  budget_K  -9.01
    y_s67_i49_j26_k0  rec_s67_edge_49_26_choose_one  1
    y_s67_i49_j26_k0  budget_K  2.0990000000000002e+01
    y_s67_i49_j26_k1  rec_s67_edge_49_26_choose_one  1
    y_s67_i49_j26_k1  budget_K  -3.92
    y_s67_i49_j26_k2  rec_s67_edge_49_26_choose_one  1
    y_s67_i49_j26_k2  budget_K  79.88
    y_s67_i50_j48_k0  rec_s67_edge_50_48_choose_one  1
    y_s67_i50_j48_k0  budget_K  -9.7000000000000011e+00
    y_s67_i50_j48_k1  rec_s67_edge_50_48_choose_one  1
    y_s67_i50_j48_k1  budget_K  -7.42
    y_s67_i50_j48_k2  rec_s67_edge_50_48_choose_one  1
    y_s67_i50_j48_k2  budget_K  -3.81
    y_s67_i51_j36_k0  rec_s67_edge_51_36_choose_one  1
    y_s67_i51_j36_k0  budget_K  11.53
    y_s67_i51_j36_k1  rec_s67_edge_51_36_choose_one  1
    y_s67_i51_j36_k1  budget_K  -26.51
    y_s67_i51_j36_k2  rec_s67_edge_51_36_choose_one  1
    y_s67_i51_j36_k2  budget_K  -2.15
    y_s67_i52_j47_k0  rec_s67_edge_52_47_choose_one  1
    y_s67_i52_j47_k0  budget_K  -4.3100000000000005e+00
    y_s67_i52_j47_k1  rec_s67_edge_52_47_choose_one  1
    y_s67_i52_j47_k1  budget_K  -6.75
    y_s67_i52_j47_k2  rec_s67_edge_52_47_choose_one  1
    y_s67_i52_j47_k2  budget_K  -7.6000000000000005e+00
    y_s67_i53_j43_k0  rec_s67_edge_53_43_choose_one  1
    y_s67_i53_j43_k0  budget_K  -2.14
    y_s67_i53_j43_k1  rec_s67_edge_53_43_choose_one  1
    y_s67_i53_j43_k1  budget_K  6.9000000000000006e-01
    y_s67_i53_j43_k2  rec_s67_edge_53_43_choose_one  1
    y_s67_i53_j43_k2  budget_K  -2.6
    y_s80_i0_j2_k0  rec_s80_edge_0_2_choose_one  1
    y_s80_i0_j2_k0  budget_K  -0.97
    y_s80_i0_j2_k1  rec_s80_edge_0_2_choose_one  1
    y_s80_i0_j2_k1  budget_K  -0.49
    y_s80_i0_j2_k2  rec_s80_edge_0_2_choose_one  1
    y_s80_i0_j2_k2  budget_K  -8.3000000000000007e-01
    y_s80_i1_j22_k0  rec_s80_edge_1_22_choose_one  1
    y_s80_i1_j22_k0  budget_K  -5.0600000000000005e+00
    y_s80_i1_j22_k1  rec_s80_edge_1_22_choose_one  1
    y_s80_i1_j22_k1  budget_K  -4.45
    y_s80_i1_j22_k2  rec_s80_edge_1_22_choose_one  1
    y_s80_i1_j22_k2  budget_K  -3.71
    y_s80_i2_j1_k0  rec_s80_edge_2_1_choose_one  1
    y_s80_i2_j1_k0  budget_K  -0.8
    y_s80_i2_j1_k1  rec_s80_edge_2_1_choose_one  1
    y_s80_i2_j1_k1  budget_K  -1.3800000000000001e+00
    y_s80_i2_j1_k2  rec_s80_edge_2_1_choose_one  1
    y_s80_i2_j1_k2  budget_K  -1.24
    y_s80_i3_j9_k0  rec_s80_edge_3_9_choose_one  1
    y_s80_i3_j9_k0  budget_K  -9.2900000000000009e+00
    y_s80_i3_j9_k1  rec_s80_edge_3_9_choose_one  1
    y_s80_i3_j9_k1  budget_K  -2.5500000000000003e+00
    y_s80_i3_j9_k2  rec_s80_edge_3_9_choose_one  1
    y_s80_i3_j9_k2  budget_K  2.17
    y_s80_i4_j34_k0  rec_s80_edge_4_34_choose_one  1
    y_s80_i4_j34_k0  budget_K  30.36
    y_s80_i4_j34_k1  rec_s80_edge_4_34_choose_one  1
    y_s80_i4_j34_k1  budget_K  -11.23
    y_s80_i4_j34_k2  rec_s80_edge_4_34_choose_one  1
    y_s80_i4_j34_k2  budget_K  -4.59
    y_s80_i5_j0_k0  rec_s80_edge_5_0_choose_one  1
    y_s80_i5_j0_k0  budget_K  4.5200000000000005e+00
    y_s80_i5_j0_k1  rec_s80_edge_5_0_choose_one  1
    y_s80_i5_j0_k1  budget_K  -4.17
    y_s80_i5_j0_k2  rec_s80_edge_5_0_choose_one  1
    y_s80_i5_j0_k2  budget_K  -2.74
    y_s80_i6_j52_k0  rec_s80_edge_6_52_choose_one  1
    y_s80_i6_j52_k0  budget_K  -3.33
    y_s80_i6_j52_k1  rec_s80_edge_6_52_choose_one  1
    y_s80_i6_j52_k1  budget_K  -5.09
    y_s80_i6_j52_k2  rec_s80_edge_6_52_choose_one  1
    y_s80_i6_j52_k2  budget_K  -8.14
    y_s80_i7_j3_k0  rec_s80_edge_7_3_choose_one  1
    y_s80_i7_j3_k0  budget_K  -2.41
    y_s80_i7_j3_k1  rec_s80_edge_7_3_choose_one  1
    y_s80_i7_j3_k1  budget_K  -1.05
    y_s80_i7_j3_k2  rec_s80_edge_7_3_choose_one  1
    y_s80_i7_j3_k2  budget_K  -2.7
    y_s80_i8_j10_k0  rec_s80_edge_8_10_choose_one  1
    y_s80_i8_j10_k0  budget_K  -4.54
    y_s80_i8_j10_k1  rec_s80_edge_8_10_choose_one  1
    y_s80_i8_j10_k1  budget_K  -5.97
    y_s80_i8_j10_k2  rec_s80_edge_8_10_choose_one  1
    y_s80_i8_j10_k2  budget_K  -2.8000000000000003e+00
    y_s80_i9_j6_k0  rec_s80_edge_9_6_choose_one  1
    y_s80_i9_j6_k0  budget_K  -2.67
    y_s80_i9_j6_k1  rec_s80_edge_9_6_choose_one  1
    y_s80_i9_j6_k1  budget_K  -4.59
    y_s80_i9_j6_k2  rec_s80_edge_9_6_choose_one  1
    y_s80_i9_j6_k2  budget_K  -6.54
    y_s80_i10_j5_k0  rec_s80_edge_10_5_choose_one  1
    y_s80_i10_j5_k0  budget_K  -2.93
    y_s80_i10_j5_k1  rec_s80_edge_10_5_choose_one  1
    y_s80_i10_j5_k1  budget_K  -4.03
    y_s80_i10_j5_k2  rec_s80_edge_10_5_choose_one  1
    y_s80_i10_j5_k2  budget_K  -6.83
    y_s80_i11_j8_k0  rec_s80_edge_11_8_choose_one  1
    y_s80_i11_j8_k0  budget_K  -3.49
    y_s80_i11_j8_k1  rec_s80_edge_11_8_choose_one  1
    y_s80_i11_j8_k1  budget_K  -2.73
    y_s80_i11_j8_k2  rec_s80_edge_11_8_choose_one  1
    y_s80_i11_j8_k2  budget_K  -1.42
    y_s80_i12_j11_k0  rec_s80_edge_12_11_choose_one  1
    y_s80_i12_j11_k0  budget_K  -1.06
    y_s80_i12_j11_k1  rec_s80_edge_12_11_choose_one  1
    y_s80_i12_j11_k1  budget_K  1.57
    y_s80_i12_j11_k2  rec_s80_edge_12_11_choose_one  1
    y_s80_i12_j11_k2  budget_K  -0.58
    y_s80_i13_j14_k0  rec_s80_edge_13_14_choose_one  1
    y_s80_i13_j14_k0  budget_K  5.33
    y_s80_i13_j14_k1  rec_s80_edge_13_14_choose_one  1
    y_s80_i13_j14_k1  budget_K  -5.68
    y_s80_i13_j14_k2  rec_s80_edge_13_14_choose_one  1
    y_s80_i13_j14_k2  budget_K  -5.25
    y_s80_i14_j12_k0  rec_s80_edge_14_12_choose_one  1
    y_s80_i14_j12_k0  budget_K  -10.88
    y_s80_i14_j12_k1  rec_s80_edge_14_12_choose_one  1
    y_s80_i14_j12_k1  budget_K  -6.61
    y_s80_i14_j12_k2  rec_s80_edge_14_12_choose_one  1
    y_s80_i14_j12_k2  budget_K  -10.47
    y_s80_i15_j13_k0  rec_s80_edge_15_13_choose_one  1
    y_s80_i15_j13_k0  budget_K  -12.31
    y_s80_i15_j13_k1  rec_s80_edge_15_13_choose_one  1
    y_s80_i15_j13_k1  budget_K  -7.38
    y_s80_i15_j13_k2  rec_s80_edge_15_13_choose_one  1
    y_s80_i15_j13_k2  budget_K  -1.92
    y_s80_i16_j17_k0  rec_s80_edge_16_17_choose_one  1
    y_s80_i16_j17_k0  budget_K  -7.15
    y_s80_i16_j17_k1  rec_s80_edge_16_17_choose_one  1
    y_s80_i16_j17_k1  budget_K  -6.13
    y_s80_i16_j17_k2  rec_s80_edge_16_17_choose_one  1
    y_s80_i16_j17_k2  budget_K  -2.68
    y_s80_i17_j38_k0  rec_s80_edge_17_38_choose_one  1
    y_s80_i17_j38_k0  budget_K  1.31
    y_s80_i17_j38_k1  rec_s80_edge_17_38_choose_one  1
    y_s80_i17_j38_k1  budget_K  8.08
    y_s80_i17_j38_k2  rec_s80_edge_17_38_choose_one  1
    y_s80_i17_j38_k2  budget_K  -4.03
    y_s80_i18_j20_k0  rec_s80_edge_18_20_choose_one  1
    y_s80_i18_j20_k0  budget_K  2.41
    y_s80_i18_j20_k1  rec_s80_edge_18_20_choose_one  1
    y_s80_i18_j20_k1  budget_K  -2.14
    y_s80_i18_j20_k2  rec_s80_edge_18_20_choose_one  1
    y_s80_i18_j20_k2  budget_K  -2.94
    y_s80_i19_j45_k0  rec_s80_edge_19_45_choose_one  1
    y_s80_i19_j45_k0  budget_K  0.08
    y_s80_i19_j45_k1  rec_s80_edge_19_45_choose_one  1
    y_s80_i19_j45_k1  budget_K  -5.7000000000000006e-01
    y_s80_i19_j45_k2  rec_s80_edge_19_45_choose_one  1
    y_s80_i19_j45_k2  budget_K  -0.63
    y_s80_i20_j16_k0  rec_s80_edge_20_16_choose_one  1
    y_s80_i20_j16_k0  budget_K  -1.0790000000000001e+01
    y_s80_i20_j16_k1  rec_s80_edge_20_16_choose_one  1
    y_s80_i20_j16_k1  budget_K  -11.09
    y_s80_i20_j16_k2  rec_s80_edge_20_16_choose_one  1
    y_s80_i20_j16_k2  budget_K  -12.33
    y_s80_i21_j24_k0  rec_s80_edge_21_24_choose_one  1
    y_s80_i21_j24_k0  budget_K  -4.03
    y_s80_i21_j24_k1  rec_s80_edge_21_24_choose_one  1
    y_s80_i21_j24_k1  budget_K  -1.67
    y_s80_i21_j24_k2  rec_s80_edge_21_24_choose_one  1
    y_s80_i21_j24_k2  budget_K  -2.42
    y_s80_i22_j21_k0  rec_s80_edge_22_21_choose_one  1
    y_s80_i22_j21_k0  budget_K  -5.84
    y_s80_i22_j21_k1  rec_s80_edge_22_21_choose_one  1
    y_s80_i22_j21_k1  budget_K  -2.25
    y_s80_i22_j21_k2  rec_s80_edge_22_21_choose_one  1
    y_s80_i22_j21_k2  budget_K  -0.17
    y_s80_i23_j46_k0  rec_s80_edge_23_46_choose_one  1
    y_s80_i23_j46_k0  budget_K  10.99
    y_s80_i23_j46_k1  rec_s80_edge_23_46_choose_one  1
    y_s80_i23_j46_k1  budget_K  -8.15
    y_s80_i23_j46_k2  rec_s80_edge_23_46_choose_one  1
    y_s80_i23_j46_k2  budget_K  -10
    y_s80_i24_j23_k0  rec_s80_edge_24_23_choose_one  1
    y_s80_i24_j23_k0  budget_K  0.55
    y_s80_i24_j23_k1  rec_s80_edge_24_23_choose_one  1
    y_s80_i24_j23_k1  budget_K  -1.84
    y_s80_i24_j23_k2  rec_s80_edge_24_23_choose_one  1
    y_s80_i24_j23_k2  budget_K  -2.86
    y_s80_i25_j31_k0  rec_s80_edge_25_31_choose_one  1
    y_s80_i25_j31_k0  budget_K  20.18
    y_s80_i25_j31_k1  rec_s80_edge_25_31_choose_one  1
    y_s80_i25_j31_k1  budget_K  60.14
    y_s80_i25_j31_k2  rec_s80_edge_25_31_choose_one  1
    y_s80_i25_j31_k2  budget_K  -4.93
    y_s80_i26_j27_k0  rec_s80_edge_26_27_choose_one  1
    y_s80_i26_j27_k0  budget_K  -3.29
    y_s80_i26_j27_k1  rec_s80_edge_26_27_choose_one  1
    y_s80_i26_j27_k1  budget_K  -3.39
    y_s80_i26_j27_k2  rec_s80_edge_26_27_choose_one  1
    y_s80_i26_j27_k2  budget_K  -2.33
    y_s80_i27_j28_k0  rec_s80_edge_27_28_choose_one  1
    y_s80_i27_j28_k0  budget_K  7.11
    y_s80_i27_j28_k1  rec_s80_edge_27_28_choose_one  1
    y_s80_i27_j28_k1  budget_K  -7.99
    y_s80_i27_j28_k2  rec_s80_edge_27_28_choose_one  1
    y_s80_i27_j28_k2  budget_K  -0.54
    y_s80_i28_j25_k0  rec_s80_edge_28_25_choose_one  1
    y_s80_i28_j25_k0  budget_K  -5.62
    y_s80_i28_j25_k1  rec_s80_edge_28_25_choose_one  1
    y_s80_i28_j25_k1  budget_K  -6.38
    y_s80_i28_j25_k2  rec_s80_edge_28_25_choose_one  1
    y_s80_i28_j25_k2  budget_K  -3.99
    y_s80_i29_j7_k0  rec_s80_edge_29_7_choose_one  1
    y_s80_i29_j7_k0  budget_K  -5.13
    y_s80_i29_j7_k1  rec_s80_edge_29_7_choose_one  1
    y_s80_i29_j7_k1  budget_K  20.22
    y_s80_i29_j7_k2  rec_s80_edge_29_7_choose_one  1
    y_s80_i29_j7_k2  budget_K  -5.89
    y_s80_i30_j29_k0  rec_s80_edge_30_29_choose_one  1
    y_s80_i30_j29_k0  budget_K  -2.5100000000000002e+00
    y_s80_i30_j29_k1  rec_s80_edge_30_29_choose_one  1
    y_s80_i30_j29_k1  budget_K  -2.41
    y_s80_i30_j29_k2  rec_s80_edge_30_29_choose_one  1
    y_s80_i30_j29_k2  budget_K  -0.18
    y_s80_i31_j30_k0  rec_s80_edge_31_30_choose_one  1
    y_s80_i31_j30_k0  budget_K  -3.49
    y_s80_i31_j30_k1  rec_s80_edge_31_30_choose_one  1
    y_s80_i31_j30_k1  budget_K  1.99
    y_s80_i31_j30_k2  rec_s80_edge_31_30_choose_one  1
    y_s80_i31_j30_k2  budget_K  -2.7600000000000002e+00
    y_s80_i32_j40_k0  rec_s80_edge_32_40_choose_one  1
    y_s80_i32_j40_k0  budget_K  -32.88
    y_s80_i32_j40_k1  rec_s80_edge_32_40_choose_one  1
    y_s80_i32_j40_k1  budget_K  -2.1490000000000002e+01
    y_s80_i32_j40_k2  rec_s80_edge_32_40_choose_one  1
    y_s80_i32_j40_k2  budget_K  -15.8
    y_s80_i33_j35_k0  rec_s80_edge_33_35_choose_one  1
    y_s80_i33_j35_k0  budget_K  -6.1000000000000005e+00
    y_s80_i33_j35_k1  rec_s80_edge_33_35_choose_one  1
    y_s80_i33_j35_k1  budget_K  4.74
    y_s80_i33_j35_k2  rec_s80_edge_33_35_choose_one  1
    y_s80_i33_j35_k2  budget_K  -6.36
    y_s80_i34_j33_k0  rec_s80_edge_34_33_choose_one  1
    y_s80_i34_j33_k0  budget_K  -12.74
    y_s80_i34_j33_k1  rec_s80_edge_34_33_choose_one  1
    y_s80_i34_j33_k1  budget_K  115.7
    y_s80_i34_j33_k2  rec_s80_edge_34_33_choose_one  1
    y_s80_i34_j33_k2  budget_K  2.16
    y_s80_i35_j32_k0  rec_s80_edge_35_32_choose_one  1
    y_s80_i35_j32_k0  budget_K  -3.0300000000000002e+00
    y_s80_i35_j32_k1  rec_s80_edge_35_32_choose_one  1
    y_s80_i35_j32_k1  budget_K  -14.51
    y_s80_i35_j32_k2  rec_s80_edge_35_32_choose_one  1
    y_s80_i35_j32_k2  budget_K  -8.21
    y_s80_i36_j49_k0  rec_s80_edge_36_49_choose_one  1
    y_s80_i36_j49_k0  budget_K  -2.27
    y_s80_i36_j49_k1  rec_s80_edge_36_49_choose_one  1
    y_s80_i36_j49_k1  budget_K  -0.07
    y_s80_i36_j49_k2  rec_s80_edge_36_49_choose_one  1
    y_s80_i36_j49_k2  budget_K  -2.09
    y_s80_i37_j39_k0  rec_s80_edge_37_39_choose_one  1
    y_s80_i37_j39_k0  budget_K  -1.6740000000000002e+01
    y_s80_i37_j39_k1  rec_s80_edge_37_39_choose_one  1
    y_s80_i37_j39_k1  budget_K  409.43
    y_s80_i37_j39_k2  rec_s80_edge_37_39_choose_one  1
    y_s80_i37_j39_k2  budget_K  4.9230000000000004e+01
    y_s80_i38_j15_k0  rec_s80_edge_38_15_choose_one  1
    y_s80_i38_j15_k0  budget_K  -3.67
    y_s80_i38_j15_k1  rec_s80_edge_38_15_choose_one  1
    y_s80_i38_j15_k1  budget_K  -6.5200000000000005e+00
    y_s80_i38_j15_k2  rec_s80_edge_38_15_choose_one  1
    y_s80_i38_j15_k2  budget_K  -5.53
    y_s80_i39_j53_k0  rec_s80_edge_39_53_choose_one  1
    y_s80_i39_j53_k0  budget_K  208.11
    y_s80_i39_j53_k1  rec_s80_edge_39_53_choose_one  1
    y_s80_i39_j53_k1  budget_K  1.1032000000000001e+02
    y_s80_i39_j53_k2  rec_s80_edge_39_53_choose_one  1
    y_s80_i39_j53_k2  budget_K  66.48
    y_s80_i40_j37_k0  rec_s80_edge_40_37_choose_one  1
    y_s80_i40_j37_k0  budget_K  -0.11
    y_s80_i40_j37_k1  rec_s80_edge_40_37_choose_one  1
    y_s80_i40_j37_k1  budget_K  0.04
    y_s80_i40_j37_k2  rec_s80_edge_40_37_choose_one  1
    y_s80_i40_j37_k2  budget_K  -26.36
    y_s80_i41_j4_k0  rec_s80_edge_41_4_choose_one  1
    y_s80_i41_j4_k0  budget_K  11.99
    y_s80_i41_j4_k1  rec_s80_edge_41_4_choose_one  1
    y_s80_i41_j4_k1  budget_K  -0.71
    y_s80_i41_j4_k2  rec_s80_edge_41_4_choose_one  1
    y_s80_i41_j4_k2  budget_K  -5.07
    y_s80_i42_j44_k0  rec_s80_edge_42_44_choose_one  1
    y_s80_i42_j44_k0  budget_K  -0.36
    y_s80_i42_j44_k1  rec_s80_edge_42_44_choose_one  1
    y_s80_i42_j44_k1  budget_K  -12.01
    y_s80_i42_j44_k2  rec_s80_edge_42_44_choose_one  1
    y_s80_i42_j44_k2  budget_K  -5.39
    y_s80_i43_j19_k0  rec_s80_edge_43_19_choose_one  1
    y_s80_i43_j19_k0  budget_K  -3.08
    y_s80_i43_j19_k1  rec_s80_edge_43_19_choose_one  1
    y_s80_i43_j19_k1  budget_K  -16.37
    y_s80_i43_j19_k2  rec_s80_edge_43_19_choose_one  1
    y_s80_i43_j19_k2  budget_K  -9.58
    y_s80_i44_j50_k0  rec_s80_edge_44_50_choose_one  1
    y_s80_i44_j50_k0  budget_K  -25.3
    y_s80_i44_j50_k1  rec_s80_edge_44_50_choose_one  1
    y_s80_i44_j50_k1  budget_K  79.73
    y_s80_i44_j50_k2  rec_s80_edge_44_50_choose_one  1
    y_s80_i44_j50_k2  budget_K  24.93
    y_s80_i45_j18_k0  rec_s80_edge_45_18_choose_one  1
    y_s80_i45_j18_k0  budget_K  4.78
    y_s80_i45_j18_k1  rec_s80_edge_45_18_choose_one  1
    y_s80_i45_j18_k1  budget_K  1.6600000000000001e+00
    y_s80_i45_j18_k2  rec_s80_edge_45_18_choose_one  1
    y_s80_i45_j18_k2  budget_K  -9.7000000000000011e+00
    y_s80_i46_j42_k0  rec_s80_edge_46_42_choose_one  1
    y_s80_i46_j42_k0  budget_K  -3.56
    y_s80_i46_j42_k1  rec_s80_edge_46_42_choose_one  1
    y_s80_i46_j42_k1  budget_K  -9.26
    y_s80_i46_j42_k2  rec_s80_edge_46_42_choose_one  1
    y_s80_i46_j42_k2  budget_K  -7.46
    y_s80_i47_j41_k0  rec_s80_edge_47_41_choose_one  1
    y_s80_i47_j41_k0  budget_K  7.04
    y_s80_i47_j41_k1  rec_s80_edge_47_41_choose_one  1
    y_s80_i47_j41_k1  budget_K  -11.22
    y_s80_i47_j41_k2  rec_s80_edge_47_41_choose_one  1
    y_s80_i47_j41_k2  budget_K  -4.7700000000000005e+00
    y_s80_i48_j51_k0  rec_s80_edge_48_51_choose_one  1
    y_s80_i48_j51_k0  budget_K  -5.91
    y_s80_i48_j51_k1  rec_s80_edge_48_51_choose_one  1
    y_s80_i48_j51_k1  budget_K  5.1000000000000005e+00
    y_s80_i48_j51_k2  rec_s80_edge_48_51_choose_one  1
    y_s80_i48_j51_k2  budget_K  -0.66
    y_s80_i49_j26_k0  rec_s80_edge_49_26_choose_one  1
    y_s80_i49_j26_k0  budget_K  -5.0200000000000005e+00
    y_s80_i49_j26_k1  rec_s80_edge_49_26_choose_one  1
    y_s80_i49_j26_k1  budget_K  -6.18
    y_s80_i49_j26_k2  rec_s80_edge_49_26_choose_one  1
    y_s80_i49_j26_k2  budget_K  -2.45
    y_s80_i50_j48_k0  rec_s80_edge_50_48_choose_one  1
    y_s80_i50_j48_k0  budget_K  -10.71
    y_s80_i50_j48_k1  rec_s80_edge_50_48_choose_one  1
    y_s80_i50_j48_k1  budget_K  -1.4200000000000001e+01
    y_s80_i50_j48_k2  rec_s80_edge_50_48_choose_one  1
    y_s80_i50_j48_k2  budget_K  -1.6300000000000001e+00
    y_s80_i51_j36_k0  rec_s80_edge_51_36_choose_one  1
    y_s80_i51_j36_k0  budget_K  -22.64
    y_s80_i51_j36_k1  rec_s80_edge_51_36_choose_one  1
    y_s80_i51_j36_k1  budget_K  -26.46
    y_s80_i51_j36_k2  rec_s80_edge_51_36_choose_one  1
    y_s80_i51_j36_k2  budget_K  -15.33
    y_s80_i52_j47_k0  rec_s80_edge_52_47_choose_one  1
    y_s80_i52_j47_k0  budget_K  -3.49
    y_s80_i52_j47_k1  rec_s80_edge_52_47_choose_one  1
    y_s80_i52_j47_k1  budget_K  -8.22
    y_s80_i52_j47_k2  rec_s80_edge_52_47_choose_one  1
    y_s80_i52_j47_k2  budget_K  11.34
    y_s80_i53_j43_k0  rec_s80_edge_53_43_choose_one  1
    y_s80_i53_j43_k0  budget_K  -6.49
    y_s80_i53_j43_k1  rec_s80_edge_53_43_choose_one  1
    y_s80_i53_j43_k1  budget_K  -6.43
    y_s80_i53_j43_k2  rec_s80_edge_53_43_choose_one  1
    y_s80_i53_j43_k2  budget_K  -4.88
    y_s55_i0_j2_k0  rec_s55_edge_0_2_choose_one  1
    y_s55_i0_j2_k0  budget_K  -8.3000000000000007e-01
    y_s55_i0_j2_k1  rec_s55_edge_0_2_choose_one  1
    y_s55_i0_j2_k1  budget_K  4.46
    y_s55_i0_j2_k2  rec_s55_edge_0_2_choose_one  1
    y_s55_i0_j2_k2  budget_K  -1.12
    y_s55_i1_j22_k0  rec_s55_edge_1_22_choose_one  1
    y_s55_i1_j22_k0  budget_K  -6.54
    y_s55_i1_j22_k1  rec_s55_edge_1_22_choose_one  1
    y_s55_i1_j22_k1  budget_K  3.65
    y_s55_i1_j22_k2  rec_s55_edge_1_22_choose_one  1
    y_s55_i1_j22_k2  budget_K  -6.18
    y_s55_i2_j1_k0  rec_s55_edge_2_1_choose_one  1
    y_s55_i2_j1_k0  budget_K  -0.97
    y_s55_i2_j1_k1  rec_s55_edge_2_1_choose_one  1
    y_s55_i2_j1_k1  budget_K  0.43
    y_s55_i2_j1_k2  rec_s55_edge_2_1_choose_one  1
    y_s55_i2_j1_k2  budget_K  -1.33
    y_s55_i3_j9_k0  rec_s55_edge_3_9_choose_one  1
    y_s55_i3_j9_k0  budget_K  -12.38
    y_s55_i3_j9_k1  rec_s55_edge_3_9_choose_one  1
    y_s55_i3_j9_k1  budget_K  -4.48
    y_s55_i3_j9_k2  rec_s55_edge_3_9_choose_one  1
    y_s55_i3_j9_k2  budget_K  -4.38
    y_s55_i4_j34_k0  rec_s55_edge_4_34_choose_one  1
    y_s55_i4_j34_k0  budget_K  -8.68
    y_s55_i4_j34_k1  rec_s55_edge_4_34_choose_one  1
    y_s55_i4_j34_k1  budget_K  -17.43
    y_s55_i4_j34_k2  rec_s55_edge_4_34_choose_one  1
    y_s55_i4_j34_k2  budget_K  -2.31
    y_s55_i5_j0_k0  rec_s55_edge_5_0_choose_one  1
    y_s55_i5_j0_k0  budget_K  0.97
    y_s55_i5_j0_k1  rec_s55_edge_5_0_choose_one  1
    y_s55_i5_j0_k1  budget_K  -4.51
    y_s55_i5_j0_k2  rec_s55_edge_5_0_choose_one  1
    y_s55_i5_j0_k2  budget_K  -5.69
    y_s55_i6_j52_k0  rec_s55_edge_6_52_choose_one  1
    y_s55_i6_j52_k0  budget_K  -6.54
    y_s55_i6_j52_k1  rec_s55_edge_6_52_choose_one  1
    y_s55_i6_j52_k1  budget_K  25.54
    y_s55_i6_j52_k2  rec_s55_edge_6_52_choose_one  1
    y_s55_i6_j52_k2  budget_K  9.74
    y_s55_i7_j3_k0  rec_s55_edge_7_3_choose_one  1
    y_s55_i7_j3_k0  budget_K  5.1000000000000005e+00
    y_s55_i7_j3_k1  rec_s55_edge_7_3_choose_one  1
    y_s55_i7_j3_k1  budget_K  -2.99
    y_s55_i7_j3_k2  rec_s55_edge_7_3_choose_one  1
    y_s55_i7_j3_k2  budget_K  11.83
    y_s55_i8_j10_k0  rec_s55_edge_8_10_choose_one  1
    y_s55_i8_j10_k0  budget_K  4.93
    y_s55_i8_j10_k1  rec_s55_edge_8_10_choose_one  1
    y_s55_i8_j10_k1  budget_K  -4.71
    y_s55_i8_j10_k2  rec_s55_edge_8_10_choose_one  1
    y_s55_i8_j10_k2  budget_K  -3.44
    y_s55_i9_j6_k0  rec_s55_edge_9_6_choose_one  1
    y_s55_i9_j6_k0  budget_K  -10.07
    y_s55_i9_j6_k1  rec_s55_edge_9_6_choose_one  1
    y_s55_i9_j6_k1  budget_K  2.5500000000000003e+00
    y_s55_i9_j6_k2  rec_s55_edge_9_6_choose_one  1
    y_s55_i9_j6_k2  budget_K  -1.6400000000000001e+00
    y_s55_i10_j5_k0  rec_s55_edge_10_5_choose_one  1
    y_s55_i10_j5_k0  budget_K  6.62
    y_s55_i10_j5_k1  rec_s55_edge_10_5_choose_one  1
    y_s55_i10_j5_k1  budget_K  -6.73
    y_s55_i10_j5_k2  rec_s55_edge_10_5_choose_one  1
    y_s55_i10_j5_k2  budget_K  -4.94
    y_s55_i11_j8_k0  rec_s55_edge_11_8_choose_one  1
    y_s55_i11_j8_k0  budget_K  -3.67
    y_s55_i11_j8_k1  rec_s55_edge_11_8_choose_one  1
    y_s55_i11_j8_k1  budget_K  -1.9000000000000001e+00
    y_s55_i11_j8_k2  rec_s55_edge_11_8_choose_one  1
    y_s55_i11_j8_k2  budget_K  -4.1000000000000003e-01
    y_s55_i12_j11_k0  rec_s55_edge_12_11_choose_one  1
    y_s55_i12_j11_k0  budget_K  -2.0100000000000002e+00
    y_s55_i12_j11_k1  rec_s55_edge_12_11_choose_one  1
    y_s55_i12_j11_k1  budget_K  -0.08
    y_s55_i12_j11_k2  rec_s55_edge_12_11_choose_one  1
    y_s55_i12_j11_k2  budget_K  -1.6
    y_s55_i13_j14_k0  rec_s55_edge_13_14_choose_one  1
    y_s55_i13_j14_k0  budget_K  -2.57
    y_s55_i13_j14_k1  rec_s55_edge_13_14_choose_one  1
    y_s55_i13_j14_k1  budget_K  -5.96
    y_s55_i13_j14_k2  rec_s55_edge_13_14_choose_one  1
    y_s55_i13_j14_k2  budget_K  -2.29
    y_s55_i14_j12_k0  rec_s55_edge_14_12_choose_one  1
    y_s55_i14_j12_k0  budget_K  -2.43
    y_s55_i14_j12_k1  rec_s55_edge_14_12_choose_one  1
    y_s55_i14_j12_k1  budget_K  -7.38
    y_s55_i14_j12_k2  rec_s55_edge_14_12_choose_one  1
    y_s55_i14_j12_k2  budget_K  -8.34
    y_s55_i15_j13_k0  rec_s55_edge_15_13_choose_one  1
    y_s55_i15_j13_k0  budget_K  -13.19
    y_s55_i15_j13_k1  rec_s55_edge_15_13_choose_one  1
    y_s55_i15_j13_k1  budget_K  -7.54
    y_s55_i15_j13_k2  rec_s55_edge_15_13_choose_one  1
    y_s55_i15_j13_k2  budget_K  -4.44
    y_s55_i16_j17_k0  rec_s55_edge_16_17_choose_one  1
    y_s55_i16_j17_k0  budget_K  -3.02
    y_s55_i16_j17_k1  rec_s55_edge_16_17_choose_one  1
    y_s55_i16_j17_k1  budget_K  -4.6000000000000005e+00
    y_s55_i16_j17_k2  rec_s55_edge_16_17_choose_one  1
    y_s55_i16_j17_k2  budget_K  -5.28
    y_s55_i17_j38_k0  rec_s55_edge_17_38_choose_one  1
    y_s55_i17_j38_k0  budget_K  -1.85
    y_s55_i17_j38_k1  rec_s55_edge_17_38_choose_one  1
    y_s55_i17_j38_k1  budget_K  1.72
    y_s55_i17_j38_k2  rec_s55_edge_17_38_choose_one  1
    y_s55_i17_j38_k2  budget_K  -5.51
    y_s55_i18_j20_k0  rec_s55_edge_18_20_choose_one  1
    y_s55_i18_j20_k0  budget_K  -2.62
    y_s55_i18_j20_k1  rec_s55_edge_18_20_choose_one  1
    y_s55_i18_j20_k1  budget_K  1.85
    y_s55_i18_j20_k2  rec_s55_edge_18_20_choose_one  1
    y_s55_i18_j20_k2  budget_K  0.38
    y_s55_i19_j45_k0  rec_s55_edge_19_45_choose_one  1
    y_s55_i19_j45_k0  budget_K  -1.1
    y_s55_i19_j45_k1  rec_s55_edge_19_45_choose_one  1
    y_s55_i19_j45_k1  budget_K  -2.49
    y_s55_i19_j45_k2  rec_s55_edge_19_45_choose_one  1
    y_s55_i19_j45_k2  budget_K  -2.44
    y_s55_i20_j16_k0  rec_s55_edge_20_16_choose_one  1
    y_s55_i20_j16_k0  budget_K  10.38
    y_s55_i20_j16_k1  rec_s55_edge_20_16_choose_one  1
    y_s55_i20_j16_k1  budget_K  -7.75
    y_s55_i20_j16_k2  rec_s55_edge_20_16_choose_one  1
    y_s55_i20_j16_k2  budget_K  -12.93
    y_s55_i21_j24_k0  rec_s55_edge_21_24_choose_one  1
    y_s55_i21_j24_k0  budget_K  -3.5500000000000003e+00
    y_s55_i21_j24_k1  rec_s55_edge_21_24_choose_one  1
    y_s55_i21_j24_k1  budget_K  1.1120000000000001e+01
    y_s55_i21_j24_k2  rec_s55_edge_21_24_choose_one  1
    y_s55_i21_j24_k2  budget_K  0.27
    y_s55_i22_j21_k0  rec_s55_edge_22_21_choose_one  1
    y_s55_i22_j21_k0  budget_K  -5.68
    y_s55_i22_j21_k1  rec_s55_edge_22_21_choose_one  1
    y_s55_i22_j21_k1  budget_K  -4.94
    y_s55_i22_j21_k2  rec_s55_edge_22_21_choose_one  1
    y_s55_i22_j21_k2  budget_K  -5.1000000000000005e+00
    y_s55_i23_j46_k0  rec_s55_edge_23_46_choose_one  1
    y_s55_i23_j46_k0  budget_K  -11.96
    y_s55_i23_j46_k1  rec_s55_edge_23_46_choose_one  1
    y_s55_i23_j46_k1  budget_K  -11.57
    y_s55_i23_j46_k2  rec_s55_edge_23_46_choose_one  1
    y_s55_i23_j46_k2  budget_K  -11.28
    y_s55_i24_j23_k0  rec_s55_edge_24_23_choose_one  1
    y_s55_i24_j23_k0  budget_K  -2.21
    y_s55_i24_j23_k1  rec_s55_edge_24_23_choose_one  1
    y_s55_i24_j23_k1  budget_K  -2.36
    y_s55_i24_j23_k2  rec_s55_edge_24_23_choose_one  1
    y_s55_i24_j23_k2  budget_K  -3.6
    y_s55_i25_j31_k0  rec_s55_edge_25_31_choose_one  1
    y_s55_i25_j31_k0  budget_K  -5.32
    y_s55_i25_j31_k1  rec_s55_edge_25_31_choose_one  1
    y_s55_i25_j31_k1  budget_K  18.39
    y_s55_i25_j31_k2  rec_s55_edge_25_31_choose_one  1
    y_s55_i25_j31_k2  budget_K  -5.04
    y_s55_i26_j27_k0  rec_s55_edge_26_27_choose_one  1
    y_s55_i26_j27_k0  budget_K  -0.76
    y_s55_i26_j27_k1  rec_s55_edge_26_27_choose_one  1
    y_s55_i26_j27_k1  budget_K  -3.86
    y_s55_i26_j27_k2  rec_s55_edge_26_27_choose_one  1
    y_s55_i26_j27_k2  budget_K  -2.19
    y_s55_i27_j28_k0  rec_s55_edge_27_28_choose_one  1
    y_s55_i27_j28_k0  budget_K  4.53
    y_s55_i27_j28_k1  rec_s55_edge_27_28_choose_one  1
    y_s55_i27_j28_k1  budget_K  -9
    y_s55_i27_j28_k2  rec_s55_edge_27_28_choose_one  1
    y_s55_i27_j28_k2  budget_K  -8.34
    y_s55_i28_j25_k0  rec_s55_edge_28_25_choose_one  1
    y_s55_i28_j25_k0  budget_K  -6
    y_s55_i28_j25_k1  rec_s55_edge_28_25_choose_one  1
    y_s55_i28_j25_k1  budget_K  0.22
    y_s55_i28_j25_k2  rec_s55_edge_28_25_choose_one  1
    y_s55_i28_j25_k2  budget_K  -3.8200000000000003e+00
    y_s55_i29_j7_k0  rec_s55_edge_29_7_choose_one  1
    y_s55_i29_j7_k0  budget_K  26.07
    y_s55_i29_j7_k1  rec_s55_edge_29_7_choose_one  1
    y_s55_i29_j7_k1  budget_K  -5.74
    y_s55_i29_j7_k2  rec_s55_edge_29_7_choose_one  1
    y_s55_i29_j7_k2  budget_K  -4.91
    y_s55_i30_j29_k0  rec_s55_edge_30_29_choose_one  1
    y_s55_i30_j29_k0  budget_K  11.32
    y_s55_i30_j29_k1  rec_s55_edge_30_29_choose_one  1
    y_s55_i30_j29_k1  budget_K  -2.84
    y_s55_i30_j29_k2  rec_s55_edge_30_29_choose_one  1
    y_s55_i30_j29_k2  budget_K  -1.41
    y_s55_i31_j30_k0  rec_s55_edge_31_30_choose_one  1
    y_s55_i31_j30_k0  budget_K  -4.32
    y_s55_i31_j30_k1  rec_s55_edge_31_30_choose_one  1
    y_s55_i31_j30_k1  budget_K  -3.74
    y_s55_i31_j30_k2  rec_s55_edge_31_30_choose_one  1
    y_s55_i31_j30_k2  budget_K  -1.55
    y_s55_i32_j40_k0  rec_s55_edge_32_40_choose_one  1
    y_s55_i32_j40_k0  budget_K  162.46
    y_s55_i32_j40_k1  rec_s55_edge_32_40_choose_one  1
    y_s55_i32_j40_k1  budget_K  -36.52
    y_s55_i32_j40_k2  rec_s55_edge_32_40_choose_one  1
    y_s55_i32_j40_k2  budget_K  181.25
    y_s55_i33_j35_k0  rec_s55_edge_33_35_choose_one  1
    y_s55_i33_j35_k0  budget_K  -1.87
    y_s55_i33_j35_k1  rec_s55_edge_33_35_choose_one  1
    y_s55_i33_j35_k1  budget_K  -3.1
    y_s55_i33_j35_k2  rec_s55_edge_33_35_choose_one  1
    y_s55_i33_j35_k2  budget_K  21.59
    y_s55_i34_j33_k0  rec_s55_edge_34_33_choose_one  1
    y_s55_i34_j33_k0  budget_K  10.3
    y_s55_i34_j33_k1  rec_s55_edge_34_33_choose_one  1
    y_s55_i34_j33_k1  budget_K  13.96
    y_s55_i34_j33_k2  rec_s55_edge_34_33_choose_one  1
    y_s55_i34_j33_k2  budget_K  -10.1
    y_s55_i35_j32_k0  rec_s55_edge_35_32_choose_one  1
    y_s55_i35_j32_k0  budget_K  -5.0200000000000005e+00
    y_s55_i35_j32_k1  rec_s55_edge_35_32_choose_one  1
    y_s55_i35_j32_k1  budget_K  -13.77
    y_s55_i35_j32_k2  rec_s55_edge_35_32_choose_one  1
    y_s55_i35_j32_k2  budget_K  1.2299000000000001e+02
    y_s55_i36_j49_k0  rec_s55_edge_36_49_choose_one  1
    y_s55_i36_j49_k0  budget_K  7.22
    y_s55_i36_j49_k1  rec_s55_edge_36_49_choose_one  1
    y_s55_i36_j49_k1  budget_K  -0.56
    y_s55_i36_j49_k2  rec_s55_edge_36_49_choose_one  1
    y_s55_i36_j49_k2  budget_K  7.0000000000000007e-01
    y_s55_i37_j39_k0  rec_s55_edge_37_39_choose_one  1
    y_s55_i37_j39_k0  budget_K  502.7
    y_s55_i37_j39_k1  rec_s55_edge_37_39_choose_one  1
    y_s55_i37_j39_k1  budget_K  -40.99
    y_s55_i37_j39_k2  rec_s55_edge_37_39_choose_one  1
    y_s55_i37_j39_k2  budget_K  48.69
    y_s55_i38_j15_k0  rec_s55_edge_38_15_choose_one  1
    y_s55_i38_j15_k0  budget_K  -4.73
    y_s55_i38_j15_k1  rec_s55_edge_38_15_choose_one  1
    y_s55_i38_j15_k1  budget_K  3.5100000000000002e+00
    y_s55_i38_j15_k2  rec_s55_edge_38_15_choose_one  1
    y_s55_i38_j15_k2  budget_K  -4.3500000000000005e+00
    y_s55_i39_j53_k0  rec_s55_edge_39_53_choose_one  1
    y_s55_i39_j53_k0  budget_K  34.15
    y_s55_i39_j53_k1  rec_s55_edge_39_53_choose_one  1
    y_s55_i39_j53_k1  budget_K  -32.01
    y_s55_i39_j53_k2  rec_s55_edge_39_53_choose_one  1
    y_s55_i39_j53_k2  budget_K  -3.6230000000000004e+01
    y_s55_i40_j37_k0  rec_s55_edge_40_37_choose_one  1
    y_s55_i40_j37_k0  budget_K  -27.94
    y_s55_i40_j37_k1  rec_s55_edge_40_37_choose_one  1
    y_s55_i40_j37_k1  budget_K  321.39
    y_s55_i40_j37_k2  rec_s55_edge_40_37_choose_one  1
    y_s55_i40_j37_k2  budget_K  -28.67
    y_s55_i41_j4_k0  rec_s55_edge_41_4_choose_one  1
    y_s55_i41_j4_k0  budget_K  -5.69
    y_s55_i41_j4_k1  rec_s55_edge_41_4_choose_one  1
    y_s55_i41_j4_k1  budget_K  -2.38
    y_s55_i41_j4_k2  rec_s55_edge_41_4_choose_one  1
    y_s55_i41_j4_k2  budget_K  -2.65
    y_s55_i42_j44_k0  rec_s55_edge_42_44_choose_one  1
    y_s55_i42_j44_k0  budget_K  -5.73
    y_s55_i42_j44_k1  rec_s55_edge_42_44_choose_one  1
    y_s55_i42_j44_k1  budget_K  -8.43
    y_s55_i42_j44_k2  rec_s55_edge_42_44_choose_one  1
    y_s55_i42_j44_k2  budget_K  -1.7
    y_s55_i43_j19_k0  rec_s55_edge_43_19_choose_one  1
    y_s55_i43_j19_k0  budget_K  -1.0120000000000001e+01
    y_s55_i43_j19_k1  rec_s55_edge_43_19_choose_one  1
    y_s55_i43_j19_k1  budget_K  8.82
    y_s55_i43_j19_k2  rec_s55_edge_43_19_choose_one  1
    y_s55_i43_j19_k2  budget_K  -1.4280000000000001e+01
    y_s55_i44_j50_k0  rec_s55_edge_44_50_choose_one  1
    y_s55_i44_j50_k0  budget_K  2.2080000000000002e+01
    y_s55_i44_j50_k1  rec_s55_edge_44_50_choose_one  1
    y_s55_i44_j50_k1  budget_K  1.0249000000000001e+02
    y_s55_i44_j50_k2  rec_s55_edge_44_50_choose_one  1
    y_s55_i44_j50_k2  budget_K  39.53
    y_s55_i45_j18_k0  rec_s55_edge_45_18_choose_one  1
    y_s55_i45_j18_k0  budget_K  -7.98
    y_s55_i45_j18_k1  rec_s55_edge_45_18_choose_one  1
    y_s55_i45_j18_k1  budget_K  16.31
    y_s55_i45_j18_k2  rec_s55_edge_45_18_choose_one  1
    y_s55_i45_j18_k2  budget_K  -3.35
    y_s55_i46_j42_k0  rec_s55_edge_46_42_choose_one  1
    y_s55_i46_j42_k0  budget_K  -7.3900000000000006e+00
    y_s55_i46_j42_k1  rec_s55_edge_46_42_choose_one  1
    y_s55_i46_j42_k1  budget_K  -7.54
    y_s55_i46_j42_k2  rec_s55_edge_46_42_choose_one  1
    y_s55_i46_j42_k2  budget_K  -8.41
    y_s55_i47_j41_k0  rec_s55_edge_47_41_choose_one  1
    y_s55_i47_j41_k0  budget_K  -1.4790000000000001e+01
    y_s55_i47_j41_k1  rec_s55_edge_47_41_choose_one  1
    y_s55_i47_j41_k1  budget_K  -17.1
    y_s55_i47_j41_k2  rec_s55_edge_47_41_choose_one  1
    y_s55_i47_j41_k2  budget_K  94.81
    y_s55_i48_j51_k0  rec_s55_edge_48_51_choose_one  1
    y_s55_i48_j51_k0  budget_K  11.67
    y_s55_i48_j51_k1  rec_s55_edge_48_51_choose_one  1
    y_s55_i48_j51_k1  budget_K  0.13
    y_s55_i48_j51_k2  rec_s55_edge_48_51_choose_one  1
    y_s55_i48_j51_k2  budget_K  -8.0400000000000009e+00
    y_s55_i49_j26_k0  rec_s55_edge_49_26_choose_one  1
    y_s55_i49_j26_k0  budget_K  -6.6400000000000006e+00
    y_s55_i49_j26_k1  rec_s55_edge_49_26_choose_one  1
    y_s55_i49_j26_k1  budget_K  -6.2700000000000005e+00
    y_s55_i49_j26_k2  rec_s55_edge_49_26_choose_one  1
    y_s55_i49_j26_k2  budget_K  -5.78
    y_s55_i50_j48_k0  rec_s55_edge_50_48_choose_one  1
    y_s55_i50_j48_k0  budget_K  -12.91
    y_s55_i50_j48_k1  rec_s55_edge_50_48_choose_one  1
    y_s55_i50_j48_k1  budget_K  -14.32
    y_s55_i50_j48_k2  rec_s55_edge_50_48_choose_one  1
    y_s55_i50_j48_k2  budget_K  -6.7
    y_s55_i51_j36_k0  rec_s55_edge_51_36_choose_one  1
    y_s55_i51_j36_k0  budget_K  -0.14
    y_s55_i51_j36_k1  rec_s55_edge_51_36_choose_one  1
    y_s55_i51_j36_k1  budget_K  -24.76
    y_s55_i51_j36_k2  rec_s55_edge_51_36_choose_one  1
    y_s55_i51_j36_k2  budget_K  -12.06
    y_s55_i52_j47_k0  rec_s55_edge_52_47_choose_one  1
    y_s55_i52_j47_k0  budget_K  4.58
    y_s55_i52_j47_k1  rec_s55_edge_52_47_choose_one  1
    y_s55_i52_j47_k1  budget_K  -8.1
    y_s55_i52_j47_k2  rec_s55_edge_52_47_choose_one  1
    y_s55_i52_j47_k2  budget_K  -8.97
    y_s55_i53_j43_k0  rec_s55_edge_53_43_choose_one  1
    y_s55_i53_j43_k0  budget_K  -7.3100000000000005e+00
    y_s55_i53_j43_k1  rec_s55_edge_53_43_choose_one  1
    y_s55_i53_j43_k1  budget_K  -6.4
    y_s55_i53_j43_k2  rec_s55_edge_53_43_choose_one  1
    y_s55_i53_j43_k2  budget_K  -2.69
    y_s4_i0_j2_k0  rec_s4_edge_0_2_choose_one  1
    y_s4_i0_j2_k0  budget_K  -1.11
    y_s4_i0_j2_k1  rec_s4_edge_0_2_choose_one  1
    y_s4_i0_j2_k1  budget_K  0.86
    y_s4_i0_j2_k2  rec_s4_edge_0_2_choose_one  1
    y_s4_i0_j2_k2  budget_K  -0.59
    y_s4_i1_j22_k0  rec_s4_edge_1_22_choose_one  1
    y_s4_i1_j22_k0  budget_K  2.79
    y_s4_i1_j22_k1  rec_s4_edge_1_22_choose_one  1
    y_s4_i1_j22_k1  budget_K  -4.34
    y_s4_i1_j22_k2  rec_s4_edge_1_22_choose_one  1
    y_s4_i1_j22_k2  budget_K  -5.19
    y_s4_i2_j1_k0  rec_s4_edge_2_1_choose_one  1
    y_s4_i2_j1_k0  budget_K  -1.17
    y_s4_i2_j1_k1  rec_s4_edge_2_1_choose_one  1
    y_s4_i2_j1_k1  budget_K  -0.99
    y_s4_i2_j1_k2  rec_s4_edge_2_1_choose_one  1
    y_s4_i2_j1_k2  budget_K  -1.17
    y_s4_i3_j9_k0  rec_s4_edge_3_9_choose_one  1
    y_s4_i3_j9_k0  budget_K  18.79
    y_s4_i3_j9_k1  rec_s4_edge_3_9_choose_one  1
    y_s4_i3_j9_k1  budget_K  -5.94
    y_s4_i3_j9_k2  rec_s4_edge_3_9_choose_one  1
    y_s4_i3_j9_k2  budget_K  -12.77
    y_s4_i4_j34_k0  rec_s4_edge_4_34_choose_one  1
    y_s4_i4_j34_k0  budget_K  23.25
    y_s4_i4_j34_k1  rec_s4_edge_4_34_choose_one  1
    y_s4_i4_j34_k1  budget_K  -18.6
    y_s4_i4_j34_k2  rec_s4_edge_4_34_choose_one  1
    y_s4_i4_j34_k2  budget_K  -1.8240000000000002e+01
    y_s4_i5_j0_k0  rec_s4_edge_5_0_choose_one  1
    y_s4_i5_j0_k0  budget_K  -2.13
    y_s4_i5_j0_k1  rec_s4_edge_5_0_choose_one  1
    y_s4_i5_j0_k1  budget_K  22.06
    y_s4_i5_j0_k2  rec_s4_edge_5_0_choose_one  1
    y_s4_i5_j0_k2  budget_K  -1.68
    y_s4_i6_j52_k0  rec_s4_edge_6_52_choose_one  1
    y_s4_i6_j52_k0  budget_K  -9.2900000000000009e+00
    y_s4_i6_j52_k1  rec_s4_edge_6_52_choose_one  1
    y_s4_i6_j52_k1  budget_K  -4.57
    y_s4_i6_j52_k2  rec_s4_edge_6_52_choose_one  1
    y_s4_i6_j52_k2  budget_K  9.78
    y_s4_i7_j3_k0  rec_s4_edge_7_3_choose_one  1
    y_s4_i7_j3_k0  budget_K  -2.5100000000000002e+00
    y_s4_i7_j3_k1  rec_s4_edge_7_3_choose_one  1
    y_s4_i7_j3_k1  budget_K  -3.33
    y_s4_i7_j3_k2  rec_s4_edge_7_3_choose_one  1
    y_s4_i7_j3_k2  budget_K  -3.09
    y_s4_i8_j10_k0  rec_s4_edge_8_10_choose_one  1
    y_s4_i8_j10_k0  budget_K  -3.45
    y_s4_i8_j10_k1  rec_s4_edge_8_10_choose_one  1
    y_s4_i8_j10_k1  budget_K  0.17
    y_s4_i8_j10_k2  rec_s4_edge_8_10_choose_one  1
    y_s4_i8_j10_k2  budget_K  -5.38
    y_s4_i9_j6_k0  rec_s4_edge_9_6_choose_one  1
    y_s4_i9_j6_k0  budget_K  -5.17
    y_s4_i9_j6_k1  rec_s4_edge_9_6_choose_one  1
    y_s4_i9_j6_k1  budget_K  -3.09
    y_s4_i9_j6_k2  rec_s4_edge_9_6_choose_one  1
    y_s4_i9_j6_k2  budget_K  0.75
    y_s4_i10_j5_k0  rec_s4_edge_10_5_choose_one  1
    y_s4_i10_j5_k0  budget_K  -1.45
    y_s4_i10_j5_k1  rec_s4_edge_10_5_choose_one  1
    y_s4_i10_j5_k1  budget_K  -2.96
    y_s4_i10_j5_k2  rec_s4_edge_10_5_choose_one  1
    y_s4_i10_j5_k2  budget_K  0.39
    y_s4_i11_j8_k0  rec_s4_edge_11_8_choose_one  1
    y_s4_i11_j8_k0  budget_K  6.2
    y_s4_i11_j8_k1  rec_s4_edge_11_8_choose_one  1
    y_s4_i11_j8_k1  budget_K  -3.48
    y_s4_i11_j8_k2  rec_s4_edge_11_8_choose_one  1
    y_s4_i11_j8_k2  budget_K  -0.99
    y_s4_i12_j11_k0  rec_s4_edge_12_11_choose_one  1
    y_s4_i12_j11_k0  budget_K  -1.71
    y_s4_i12_j11_k1  rec_s4_edge_12_11_choose_one  1
    y_s4_i12_j11_k1  budget_K  -1.75
    y_s4_i12_j11_k2  rec_s4_edge_12_11_choose_one  1
    y_s4_i12_j11_k2  budget_K  -1.95
    y_s4_i13_j14_k0  rec_s4_edge_13_14_choose_one  1
    y_s4_i13_j14_k0  budget_K  30.07
    y_s4_i13_j14_k1  rec_s4_edge_13_14_choose_one  1
    y_s4_i13_j14_k1  budget_K  -2.62
    y_s4_i13_j14_k2  rec_s4_edge_13_14_choose_one  1
    y_s4_i13_j14_k2  budget_K  -3.42
    y_s4_i14_j12_k0  rec_s4_edge_14_12_choose_one  1
    y_s4_i14_j12_k0  budget_K  -9.01
    y_s4_i14_j12_k1  rec_s4_edge_14_12_choose_one  1
    y_s4_i14_j12_k1  budget_K  1.33
    y_s4_i14_j12_k2  rec_s4_edge_14_12_choose_one  1
    y_s4_i14_j12_k2  budget_K  -10.27
    y_s4_i15_j13_k0  rec_s4_edge_15_13_choose_one  1
    y_s4_i15_j13_k0  budget_K  32.86
    y_s4_i15_j13_k1  rec_s4_edge_15_13_choose_one  1
    y_s4_i15_j13_k1  budget_K  -11.83
    y_s4_i15_j13_k2  rec_s4_edge_15_13_choose_one  1
    y_s4_i15_j13_k2  budget_K  12.55
    y_s4_i16_j17_k0  rec_s4_edge_16_17_choose_one  1
    y_s4_i16_j17_k0  budget_K  0.19
    y_s4_i16_j17_k1  rec_s4_edge_16_17_choose_one  1
    y_s4_i16_j17_k1  budget_K  -3.72
    y_s4_i16_j17_k2  rec_s4_edge_16_17_choose_one  1
    y_s4_i16_j17_k2  budget_K  -6.91
    y_s4_i17_j38_k0  rec_s4_edge_17_38_choose_one  1
    y_s4_i17_j38_k0  budget_K  -2.04
    y_s4_i17_j38_k1  rec_s4_edge_17_38_choose_one  1
    y_s4_i17_j38_k1  budget_K  -1.07
    y_s4_i17_j38_k2  rec_s4_edge_17_38_choose_one  1
    y_s4_i17_j38_k2  budget_K  -4.94
    y_s4_i18_j20_k0  rec_s4_edge_18_20_choose_one  1
    y_s4_i18_j20_k0  budget_K  1.3800000000000001e+00
    y_s4_i18_j20_k1  rec_s4_edge_18_20_choose_one  1
    y_s4_i18_j20_k1  budget_K  -2.7600000000000002e+00
    y_s4_i18_j20_k2  rec_s4_edge_18_20_choose_one  1
    y_s4_i18_j20_k2  budget_K  -2.65
    y_s4_i19_j45_k0  rec_s4_edge_19_45_choose_one  1
    y_s4_i19_j45_k0  budget_K  0.15
    y_s4_i19_j45_k1  rec_s4_edge_19_45_choose_one  1
    y_s4_i19_j45_k1  budget_K  -1.93
    y_s4_i19_j45_k2  rec_s4_edge_19_45_choose_one  1
    y_s4_i19_j45_k2  budget_K  -0.11
    y_s4_i20_j16_k0  rec_s4_edge_20_16_choose_one  1
    y_s4_i20_j16_k0  budget_K  14.26
    y_s4_i20_j16_k1  rec_s4_edge_20_16_choose_one  1
    y_s4_i20_j16_k1  budget_K  9.58
    y_s4_i20_j16_k2  rec_s4_edge_20_16_choose_one  1
    y_s4_i20_j16_k2  budget_K  74.01
    y_s4_i21_j24_k0  rec_s4_edge_21_24_choose_one  1
    y_s4_i21_j24_k0  budget_K  -2.19
    y_s4_i21_j24_k1  rec_s4_edge_21_24_choose_one  1
    y_s4_i21_j24_k1  budget_K  -3.22
    y_s4_i21_j24_k2  rec_s4_edge_21_24_choose_one  1
    y_s4_i21_j24_k2  budget_K  -0.36
    y_s4_i22_j21_k0  rec_s4_edge_22_21_choose_one  1
    y_s4_i22_j21_k0  budget_K  1.28
    y_s4_i22_j21_k1  rec_s4_edge_22_21_choose_one  1
    y_s4_i22_j21_k1  budget_K  -6.51
    y_s4_i22_j21_k2  rec_s4_edge_22_21_choose_one  1
    y_s4_i22_j21_k2  budget_K  -4.98
    y_s4_i23_j46_k0  rec_s4_edge_23_46_choose_one  1
    y_s4_i23_j46_k0  budget_K  -5.2
    y_s4_i23_j46_k1  rec_s4_edge_23_46_choose_one  1
    y_s4_i23_j46_k1  budget_K  -9.47
    y_s4_i23_j46_k2  rec_s4_edge_23_46_choose_one  1
    y_s4_i23_j46_k2  budget_K  -1.0370000000000001e+01
    y_s4_i24_j23_k0  rec_s4_edge_24_23_choose_one  1
    y_s4_i24_j23_k0  budget_K  -2.5500000000000003e+00
    y_s4_i24_j23_k1  rec_s4_edge_24_23_choose_one  1
    y_s4_i24_j23_k1  budget_K  -2.38
    y_s4_i24_j23_k2  rec_s4_edge_24_23_choose_one  1
    y_s4_i24_j23_k2  budget_K  -2.99
    y_s4_i25_j31_k0  rec_s4_edge_25_31_choose_one  1
    y_s4_i25_j31_k0  budget_K  -3.18
    y_s4_i25_j31_k1  rec_s4_edge_25_31_choose_one  1
    y_s4_i25_j31_k1  budget_K  -5.55
    y_s4_i25_j31_k2  rec_s4_edge_25_31_choose_one  1
    y_s4_i25_j31_k2  budget_K  -5.2700000000000005e+00
    y_s4_i26_j27_k0  rec_s4_edge_26_27_choose_one  1
    y_s4_i26_j27_k0  budget_K  -0.62
    y_s4_i26_j27_k1  rec_s4_edge_26_27_choose_one  1
    y_s4_i26_j27_k1  budget_K  -1.58
    y_s4_i26_j27_k2  rec_s4_edge_26_27_choose_one  1
    y_s4_i26_j27_k2  budget_K  -1.8800000000000001e+00
    y_s4_i27_j28_k0  rec_s4_edge_27_28_choose_one  1
    y_s4_i27_j28_k0  budget_K  -8.33
    y_s4_i27_j28_k1  rec_s4_edge_27_28_choose_one  1
    y_s4_i27_j28_k1  budget_K  -2.72
    y_s4_i27_j28_k2  rec_s4_edge_27_28_choose_one  1
    y_s4_i27_j28_k2  budget_K  44.64
    y_s4_i28_j25_k0  rec_s4_edge_28_25_choose_one  1
    y_s4_i28_j25_k0  budget_K  -2.89
    y_s4_i28_j25_k1  rec_s4_edge_28_25_choose_one  1
    y_s4_i28_j25_k1  budget_K  -4.88
    y_s4_i28_j25_k2  rec_s4_edge_28_25_choose_one  1
    y_s4_i28_j25_k2  budget_K  -3.0300000000000002e+00
    y_s4_i29_j7_k0  rec_s4_edge_29_7_choose_one  1
    y_s4_i29_j7_k0  budget_K  -4.8100000000000005e+00
    y_s4_i29_j7_k1  rec_s4_edge_29_7_choose_one  1
    y_s4_i29_j7_k1  budget_K  -4.7000000000000003e-01
    y_s4_i29_j7_k2  rec_s4_edge_29_7_choose_one  1
    y_s4_i29_j7_k2  budget_K  -6.7
    y_s4_i30_j29_k0  rec_s4_edge_30_29_choose_one  1
    y_s4_i30_j29_k0  budget_K  -2.69
    y_s4_i30_j29_k1  rec_s4_edge_30_29_choose_one  1
    y_s4_i30_j29_k1  budget_K  1.0290000000000001e+01
    y_s4_i30_j29_k2  rec_s4_edge_30_29_choose_one  1
    y_s4_i30_j29_k2  budget_K  3.7800000000000002e+00
    y_s4_i31_j30_k0  rec_s4_edge_31_30_choose_one  1
    y_s4_i31_j30_k0  budget_K  -1.6
    y_s4_i31_j30_k1  rec_s4_edge_31_30_choose_one  1
    y_s4_i31_j30_k1  budget_K  1.05
    y_s4_i31_j30_k2  rec_s4_edge_31_30_choose_one  1
    y_s4_i31_j30_k2  budget_K  -2.45
    y_s4_i32_j40_k0  rec_s4_edge_32_40_choose_one  1
    y_s4_i32_j40_k0  budget_K  -29
    y_s4_i32_j40_k1  rec_s4_edge_32_40_choose_one  1
    y_s4_i32_j40_k1  budget_K  -33.62
    y_s4_i32_j40_k2  rec_s4_edge_32_40_choose_one  1
    y_s4_i32_j40_k2  budget_K  -19.81
    y_s4_i33_j35_k0  rec_s4_edge_33_35_choose_one  1
    y_s4_i33_j35_k0  budget_K  -7.05
    y_s4_i33_j35_k1  rec_s4_edge_33_35_choose_one  1
    y_s4_i33_j35_k1  budget_K  -5.89
    y_s4_i33_j35_k2  rec_s4_edge_33_35_choose_one  1
    y_s4_i33_j35_k2  budget_K  -6.76
    y_s4_i34_j33_k0  rec_s4_edge_34_33_choose_one  1
    y_s4_i34_j33_k0  budget_K  -11.73
    y_s4_i34_j33_k1  rec_s4_edge_34_33_choose_one  1
    y_s4_i34_j33_k1  budget_K  -6.48
    y_s4_i34_j33_k2  rec_s4_edge_34_33_choose_one  1
    y_s4_i34_j33_k2  budget_K  8.1200000000000010e+00
    y_s4_i35_j32_k0  rec_s4_edge_35_32_choose_one  1
    y_s4_i35_j32_k0  budget_K  -8.81
    y_s4_i35_j32_k1  rec_s4_edge_35_32_choose_one  1
    y_s4_i35_j32_k1  budget_K  -9.25
    y_s4_i35_j32_k2  rec_s4_edge_35_32_choose_one  1
    y_s4_i35_j32_k2  budget_K  39.87
    y_s4_i36_j49_k0  rec_s4_edge_36_49_choose_one  1
    y_s4_i36_j49_k0  budget_K  -2.74
    y_s4_i36_j49_k1  rec_s4_edge_36_49_choose_one  1
    y_s4_i36_j49_k1  budget_K  -1.86
    y_s4_i36_j49_k2  rec_s4_edge_36_49_choose_one  1
    y_s4_i36_j49_k2  budget_K  -2.63
    y_s4_i37_j39_k0  rec_s4_edge_37_39_choose_one  1
    y_s4_i37_j39_k0  budget_K  -33.58
    y_s4_i37_j39_k1  rec_s4_edge_37_39_choose_one  1
    y_s4_i37_j39_k1  budget_K  -41.63
    y_s4_i37_j39_k2  rec_s4_edge_37_39_choose_one  1
    y_s4_i37_j39_k2  budget_K  -38.13
    y_s4_i38_j15_k0  rec_s4_edge_38_15_choose_one  1
    y_s4_i38_j15_k0  budget_K  -9.35
    y_s4_i38_j15_k1  rec_s4_edge_38_15_choose_one  1
    y_s4_i38_j15_k1  budget_K  -5.79
    y_s4_i38_j15_k2  rec_s4_edge_38_15_choose_one  1
    y_s4_i38_j15_k2  budget_K  -5.22
    y_s4_i39_j53_k0  rec_s4_edge_39_53_choose_one  1
    y_s4_i39_j53_k0  budget_K  -33.27
    y_s4_i39_j53_k1  rec_s4_edge_39_53_choose_one  1
    y_s4_i39_j53_k1  budget_K  -16.64
    y_s4_i39_j53_k2  rec_s4_edge_39_53_choose_one  1
    y_s4_i39_j53_k2  budget_K  -9.21
    y_s4_i40_j37_k0  rec_s4_edge_40_37_choose_one  1
    y_s4_i40_j37_k0  budget_K  13.39
    y_s4_i40_j37_k1  rec_s4_edge_40_37_choose_one  1
    y_s4_i40_j37_k1  budget_K  -32.24
    y_s4_i40_j37_k2  rec_s4_edge_40_37_choose_one  1
    y_s4_i40_j37_k2  budget_K  -21.71
    y_s4_i41_j4_k0  rec_s4_edge_41_4_choose_one  1
    y_s4_i41_j4_k0  budget_K  -0.52
    y_s4_i41_j4_k1  rec_s4_edge_41_4_choose_one  1
    y_s4_i41_j4_k1  budget_K  -6.15
    y_s4_i41_j4_k2  rec_s4_edge_41_4_choose_one  1
    y_s4_i41_j4_k2  budget_K  3.34
    y_s4_i42_j44_k0  rec_s4_edge_42_44_choose_one  1
    y_s4_i42_j44_k0  budget_K  -2.79
    y_s4_i42_j44_k1  rec_s4_edge_42_44_choose_one  1
    y_s4_i42_j44_k1  budget_K  -9.9
    y_s4_i42_j44_k2  rec_s4_edge_42_44_choose_one  1
    y_s4_i42_j44_k2  budget_K  -8.89
    y_s4_i43_j19_k0  rec_s4_edge_43_19_choose_one  1
    y_s4_i43_j19_k0  budget_K  1.11
    y_s4_i43_j19_k1  rec_s4_edge_43_19_choose_one  1
    y_s4_i43_j19_k1  budget_K  -5.24
    y_s4_i43_j19_k2  rec_s4_edge_43_19_choose_one  1
    y_s4_i43_j19_k2  budget_K  55.22
    y_s4_i44_j50_k0  rec_s4_edge_44_50_choose_one  1
    y_s4_i44_j50_k0  budget_K  -11.73
    y_s4_i44_j50_k1  rec_s4_edge_44_50_choose_one  1
    y_s4_i44_j50_k1  budget_K  -36.57
    y_s4_i44_j50_k2  rec_s4_edge_44_50_choose_one  1
    y_s4_i44_j50_k2  budget_K  -21.51
    y_s4_i45_j18_k0  rec_s4_edge_45_18_choose_one  1
    y_s4_i45_j18_k0  budget_K  -2.84
    y_s4_i45_j18_k1  rec_s4_edge_45_18_choose_one  1
    y_s4_i45_j18_k1  budget_K  -6.09
    y_s4_i45_j18_k2  rec_s4_edge_45_18_choose_one  1
    y_s4_i45_j18_k2  budget_K  -9.3700000000000010e+00
    y_s4_i46_j42_k0  rec_s4_edge_46_42_choose_one  1
    y_s4_i46_j42_k0  budget_K  -9.86
    y_s4_i46_j42_k1  rec_s4_edge_46_42_choose_one  1
    y_s4_i46_j42_k1  budget_K  -2.02
    y_s4_i46_j42_k2  rec_s4_edge_46_42_choose_one  1
    y_s4_i46_j42_k2  budget_K  -8.65
    y_s4_i47_j41_k0  rec_s4_edge_47_41_choose_one  1
    y_s4_i47_j41_k0  budget_K  4.5550000000000004e+01
    y_s4_i47_j41_k1  rec_s4_edge_47_41_choose_one  1
    y_s4_i47_j41_k1  budget_K  17.41
    y_s4_i47_j41_k2  rec_s4_edge_47_41_choose_one  1
    y_s4_i47_j41_k2  budget_K  -1.36
    y_s4_i48_j51_k0  rec_s4_edge_48_51_choose_one  1
    y_s4_i48_j51_k0  budget_K  -5.63
    y_s4_i48_j51_k1  rec_s4_edge_48_51_choose_one  1
    y_s4_i48_j51_k1  budget_K  54.06
    y_s4_i48_j51_k2  rec_s4_edge_48_51_choose_one  1
    y_s4_i48_j51_k2  budget_K  -9.46
    y_s4_i49_j26_k0  rec_s4_edge_49_26_choose_one  1
    y_s4_i49_j26_k0  budget_K  -5.8500000000000005e+00
    y_s4_i49_j26_k1  rec_s4_edge_49_26_choose_one  1
    y_s4_i49_j26_k1  budget_K  -0.48
    y_s4_i49_j26_k2  rec_s4_edge_49_26_choose_one  1
    y_s4_i49_j26_k2  budget_K  -3.97
    y_s4_i50_j48_k0  rec_s4_edge_50_48_choose_one  1
    y_s4_i50_j48_k0  budget_K  6.4
    y_s4_i50_j48_k1  rec_s4_edge_50_48_choose_one  1
    y_s4_i50_j48_k1  budget_K  -1.4620000000000001e+01
    y_s4_i50_j48_k2  rec_s4_edge_50_48_choose_one  1
    y_s4_i50_j48_k2  budget_K  -13.36
    y_s4_i51_j36_k0  rec_s4_edge_51_36_choose_one  1
    y_s4_i51_j36_k0  budget_K  -25.42
    y_s4_i51_j36_k1  rec_s4_edge_51_36_choose_one  1
    y_s4_i51_j36_k1  budget_K  -22.42
    y_s4_i51_j36_k2  rec_s4_edge_51_36_choose_one  1
    y_s4_i51_j36_k2  budget_K  -23.68
    y_s4_i52_j47_k0  rec_s4_edge_52_47_choose_one  1
    y_s4_i52_j47_k0  budget_K  4.3
    y_s4_i52_j47_k1  rec_s4_edge_52_47_choose_one  1
    y_s4_i52_j47_k1  budget_K  -7.36
    y_s4_i52_j47_k2  rec_s4_edge_52_47_choose_one  1
    y_s4_i52_j47_k2  budget_K  -8.38
    y_s4_i53_j43_k0  rec_s4_edge_53_43_choose_one  1
    y_s4_i53_j43_k0  budget_K  -4.17
    y_s4_i53_j43_k1  rec_s4_edge_53_43_choose_one  1
    y_s4_i53_j43_k1  budget_K  -4.2700000000000005e+00
    y_s4_i53_j43_k2  rec_s4_edge_53_43_choose_one  1
    y_s4_i53_j43_k2  budget_K  -6.21
    y_s5_i0_j2_k0  rec_s5_edge_0_2_choose_one  1
    y_s5_i0_j2_k0  budget_K  0.39
    y_s5_i0_j2_k1  rec_s5_edge_0_2_choose_one  1
    y_s5_i0_j2_k1  budget_K  -0.79
    y_s5_i0_j2_k2  rec_s5_edge_0_2_choose_one  1
    y_s5_i0_j2_k2  budget_K  4.3100000000000005e+00
    y_s5_i1_j22_k0  rec_s5_edge_1_22_choose_one  1
    y_s5_i1_j22_k0  budget_K  3.52
    y_s5_i1_j22_k1  rec_s5_edge_1_22_choose_one  1
    y_s5_i1_j22_k1  budget_K  13.26
    y_s5_i1_j22_k2  rec_s5_edge_1_22_choose_one  1
    y_s5_i1_j22_k2  budget_K  15.51
    y_s5_i2_j1_k0  rec_s5_edge_2_1_choose_one  1
    y_s5_i2_j1_k0  budget_K  -1.3800000000000001e+00
    y_s5_i2_j1_k1  rec_s5_edge_2_1_choose_one  1
    y_s5_i2_j1_k1  budget_K  -0.81
    y_s5_i2_j1_k2  rec_s5_edge_2_1_choose_one  1
    y_s5_i2_j1_k2  budget_K  -1.36
    y_s5_i3_j9_k0  rec_s5_edge_3_9_choose_one  1
    y_s5_i3_j9_k0  budget_K  0.48
    y_s5_i3_j9_k1  rec_s5_edge_3_9_choose_one  1
    y_s5_i3_j9_k1  budget_K  -1.25
    y_s5_i3_j9_k2  rec_s5_edge_3_9_choose_one  1
    y_s5_i3_j9_k2  budget_K  -4.0600000000000005e+00
    y_s5_i4_j34_k0  rec_s5_edge_4_34_choose_one  1
    y_s5_i4_j34_k0  budget_K  -4.11
    y_s5_i4_j34_k1  rec_s5_edge_4_34_choose_one  1
    y_s5_i4_j34_k1  budget_K  -0.02
    y_s5_i4_j34_k2  rec_s5_edge_4_34_choose_one  1
    y_s5_i4_j34_k2  budget_K  -15.75
    y_s5_i5_j0_k0  rec_s5_edge_5_0_choose_one  1
    y_s5_i5_j0_k0  budget_K  -5.6000000000000005e+00
    y_s5_i5_j0_k1  rec_s5_edge_5_0_choose_one  1
    y_s5_i5_j0_k1  budget_K  -5.7700000000000005e+00
    y_s5_i5_j0_k2  rec_s5_edge_5_0_choose_one  1
    y_s5_i5_j0_k2  budget_K  -3.92
    y_s5_i6_j52_k0  rec_s5_edge_6_52_choose_one  1
    y_s5_i6_j52_k0  budget_K  -8.23
    y_s5_i6_j52_k1  rec_s5_edge_6_52_choose_one  1
    y_s5_i6_j52_k1  budget_K  5.53
    y_s5_i6_j52_k2  rec_s5_edge_6_52_choose_one  1
    y_s5_i6_j52_k2  budget_K  -5.44
    y_s5_i7_j3_k0  rec_s5_edge_7_3_choose_one  1
    y_s5_i7_j3_k0  budget_K  -2.83
    y_s5_i7_j3_k1  rec_s5_edge_7_3_choose_one  1
    y_s5_i7_j3_k1  budget_K  4.14
    y_s5_i7_j3_k2  rec_s5_edge_7_3_choose_one  1
    y_s5_i7_j3_k2  budget_K  -0.56
    y_s5_i8_j10_k0  rec_s5_edge_8_10_choose_one  1
    y_s5_i8_j10_k0  budget_K  0.65
    y_s5_i8_j10_k1  rec_s5_edge_8_10_choose_one  1
    y_s5_i8_j10_k1  budget_K  -2.7600000000000002e+00
    y_s5_i8_j10_k2  rec_s5_edge_8_10_choose_one  1
    y_s5_i8_j10_k2  budget_K  -5.46
    y_s5_i9_j6_k0  rec_s5_edge_9_6_choose_one  1
    y_s5_i9_j6_k0  budget_K  1.1400000000000001e+00
    y_s5_i9_j6_k1  rec_s5_edge_9_6_choose_one  1
    y_s5_i9_j6_k1  budget_K  0.98
    y_s5_i9_j6_k2  rec_s5_edge_9_6_choose_one  1
    y_s5_i9_j6_k2  budget_K  108.98
    y_s5_i10_j5_k0  rec_s5_edge_10_5_choose_one  1
    y_s5_i10_j5_k0  budget_K  -4.47
    y_s5_i10_j5_k1  rec_s5_edge_10_5_choose_one  1
    y_s5_i10_j5_k1  budget_K  -1
    y_s5_i10_j5_k2  rec_s5_edge_10_5_choose_one  1
    y_s5_i10_j5_k2  budget_K  -4.05
    y_s5_i11_j8_k0  rec_s5_edge_11_8_choose_one  1
    y_s5_i11_j8_k0  budget_K  -3.2600000000000002e+00
    y_s5_i11_j8_k1  rec_s5_edge_11_8_choose_one  1
    y_s5_i11_j8_k1  budget_K  -1.8
    y_s5_i11_j8_k2  rec_s5_edge_11_8_choose_one  1
    y_s5_i11_j8_k2  budget_K  -4.04
    y_s5_i12_j11_k0  rec_s5_edge_12_11_choose_one  1
    y_s5_i12_j11_k0  budget_K  -1.33
    y_s5_i12_j11_k1  rec_s5_edge_12_11_choose_one  1
    y_s5_i12_j11_k1  budget_K  -1.33
    y_s5_i12_j11_k2  rec_s5_edge_12_11_choose_one  1
    y_s5_i12_j11_k2  budget_K  -1.59
    y_s5_i13_j14_k0  rec_s5_edge_13_14_choose_one  1
    y_s5_i13_j14_k0  budget_K  3.4
    y_s5_i13_j14_k1  rec_s5_edge_13_14_choose_one  1
    y_s5_i13_j14_k1  budget_K  1.9100000000000001e+00
    y_s5_i13_j14_k2  rec_s5_edge_13_14_choose_one  1
    y_s5_i13_j14_k2  budget_K  -5.92
    y_s5_i14_j12_k0  rec_s5_edge_14_12_choose_one  1
    y_s5_i14_j12_k0  budget_K  -10.74
    y_s5_i14_j12_k1  rec_s5_edge_14_12_choose_one  1
    y_s5_i14_j12_k1  budget_K  -8.89
    y_s5_i14_j12_k2  rec_s5_edge_14_12_choose_one  1
    y_s5_i14_j12_k2  budget_K  -9.83
    y_s5_i15_j13_k0  rec_s5_edge_15_13_choose_one  1
    y_s5_i15_j13_k0  budget_K  1.77
    y_s5_i15_j13_k1  rec_s5_edge_15_13_choose_one  1
    y_s5_i15_j13_k1  budget_K  -7.42
    y_s5_i15_j13_k2  rec_s5_edge_15_13_choose_one  1
    y_s5_i15_j13_k2  budget_K  -2.48
    y_s5_i16_j17_k0  rec_s5_edge_16_17_choose_one  1
    y_s5_i16_j17_k0  budget_K  23.09
    y_s5_i16_j17_k1  rec_s5_edge_16_17_choose_one  1
    y_s5_i16_j17_k1  budget_K  -5.95
    y_s5_i16_j17_k2  rec_s5_edge_16_17_choose_one  1
    y_s5_i16_j17_k2  budget_K  -7.22
    y_s5_i17_j38_k0  rec_s5_edge_17_38_choose_one  1
    y_s5_i17_j38_k0  budget_K  -5.74
    y_s5_i17_j38_k1  rec_s5_edge_17_38_choose_one  1
    y_s5_i17_j38_k1  budget_K  5.95
    y_s5_i17_j38_k2  rec_s5_edge_17_38_choose_one  1
    y_s5_i17_j38_k2  budget_K  5.48
    y_s5_i18_j20_k0  rec_s5_edge_18_20_choose_one  1
    y_s5_i18_j20_k0  budget_K  8.3000000000000007e-01
    y_s5_i18_j20_k1  rec_s5_edge_18_20_choose_one  1
    y_s5_i18_j20_k1  budget_K  -1.99
    y_s5_i18_j20_k2  rec_s5_edge_18_20_choose_one  1
    y_s5_i18_j20_k2  budget_K  -3.11
    y_s5_i19_j45_k0  rec_s5_edge_19_45_choose_one  1
    y_s5_i19_j45_k0  budget_K  2.06
    y_s5_i19_j45_k1  rec_s5_edge_19_45_choose_one  1
    y_s5_i19_j45_k1  budget_K  0.33
    y_s5_i19_j45_k2  rec_s5_edge_19_45_choose_one  1
    y_s5_i19_j45_k2  budget_K  -1.81
    y_s5_i20_j16_k0  rec_s5_edge_20_16_choose_one  1
    y_s5_i20_j16_k0  budget_K  4.3100000000000005e+00
    y_s5_i20_j16_k1  rec_s5_edge_20_16_choose_one  1
    y_s5_i20_j16_k1  budget_K  -12.8
    y_s5_i20_j16_k2  rec_s5_edge_20_16_choose_one  1
    y_s5_i20_j16_k2  budget_K  -11.44
    y_s5_i21_j24_k0  rec_s5_edge_21_24_choose_one  1
    y_s5_i21_j24_k0  budget_K  -2.5100000000000002e+00
    y_s5_i21_j24_k1  rec_s5_edge_21_24_choose_one  1
    y_s5_i21_j24_k1  budget_K  -4.24
    y_s5_i21_j24_k2  rec_s5_edge_21_24_choose_one  1
    y_s5_i21_j24_k2  budget_K  -0.92
    y_s5_i22_j21_k0  rec_s5_edge_22_21_choose_one  1
    y_s5_i22_j21_k0  budget_K  -1.82
    y_s5_i22_j21_k1  rec_s5_edge_22_21_choose_one  1
    y_s5_i22_j21_k1  budget_K  1.51
    y_s5_i22_j21_k2  rec_s5_edge_22_21_choose_one  1
    y_s5_i22_j21_k2  budget_K  -5.26
    y_s5_i23_j46_k0  rec_s5_edge_23_46_choose_one  1
    y_s5_i23_j46_k0  budget_K  -9.13
    y_s5_i23_j46_k1  rec_s5_edge_23_46_choose_one  1
    y_s5_i23_j46_k1  budget_K  -3.95
    y_s5_i23_j46_k2  rec_s5_edge_23_46_choose_one  1
    y_s5_i23_j46_k2  budget_K  -10.88
    y_s5_i24_j23_k0  rec_s5_edge_24_23_choose_one  1
    y_s5_i24_j23_k0  budget_K  -3.38
    y_s5_i24_j23_k1  rec_s5_edge_24_23_choose_one  1
    y_s5_i24_j23_k1  budget_K  -3.13
    y_s5_i24_j23_k2  rec_s5_edge_24_23_choose_one  1
    y_s5_i24_j23_k2  budget_K  -3.85
    y_s5_i25_j31_k0  rec_s5_edge_25_31_choose_one  1
    y_s5_i25_j31_k0  budget_K  -5.84
    y_s5_i25_j31_k1  rec_s5_edge_25_31_choose_one  1
    y_s5_i25_j31_k1  budget_K  -6.34
    y_s5_i25_j31_k2  rec_s5_edge_25_31_choose_one  1
    y_s5_i25_j31_k2  budget_K  -5.61
    y_s5_i26_j27_k0  rec_s5_edge_26_27_choose_one  1
    y_s5_i26_j27_k0  budget_K  -1.36
    y_s5_i26_j27_k1  rec_s5_edge_26_27_choose_one  1
    y_s5_i26_j27_k1  budget_K  -2.5100000000000002e+00
    y_s5_i26_j27_k2  rec_s5_edge_26_27_choose_one  1
    y_s5_i26_j27_k2  budget_K  -3.61
    y_s5_i27_j28_k0  rec_s5_edge_27_28_choose_one  1
    y_s5_i27_j28_k0  budget_K  -3.15
    y_s5_i27_j28_k1  rec_s5_edge_27_28_choose_one  1
    y_s5_i27_j28_k1  budget_K  -7.6400000000000006e+00
    y_s5_i27_j28_k2  rec_s5_edge_27_28_choose_one  1
    y_s5_i27_j28_k2  budget_K  27.42
    y_s5_i28_j25_k0  rec_s5_edge_28_25_choose_one  1
    y_s5_i28_j25_k0  budget_K  -3.84
    y_s5_i28_j25_k1  rec_s5_edge_28_25_choose_one  1
    y_s5_i28_j25_k1  budget_K  -1.3
    y_s5_i28_j25_k2  rec_s5_edge_28_25_choose_one  1
    y_s5_i28_j25_k2  budget_K  -5.23
    y_s5_i29_j7_k0  rec_s5_edge_29_7_choose_one  1
    y_s5_i29_j7_k0  budget_K  7.6000000000000005e+00
    y_s5_i29_j7_k1  rec_s5_edge_29_7_choose_one  1
    y_s5_i29_j7_k1  budget_K  14.14
    y_s5_i29_j7_k2  rec_s5_edge_29_7_choose_one  1
    y_s5_i29_j7_k2  budget_K  -8.31
    y_s5_i30_j29_k0  rec_s5_edge_30_29_choose_one  1
    y_s5_i30_j29_k0  budget_K  2.5300000000000002e+00
    y_s5_i30_j29_k1  rec_s5_edge_30_29_choose_one  1
    y_s5_i30_j29_k1  budget_K  -1.1500000000000001e+00
    y_s5_i30_j29_k2  rec_s5_edge_30_29_choose_one  1
    y_s5_i30_j29_k2  budget_K  -2.65
    y_s5_i31_j30_k0  rec_s5_edge_31_30_choose_one  1
    y_s5_i31_j30_k0  budget_K  -2.43
    y_s5_i31_j30_k1  rec_s5_edge_31_30_choose_one  1
    y_s5_i31_j30_k1  budget_K  -1.08
    y_s5_i31_j30_k2  rec_s5_edge_31_30_choose_one  1
    y_s5_i31_j30_k2  budget_K  -2.44
    y_s5_i32_j40_k0  rec_s5_edge_32_40_choose_one  1
    y_s5_i32_j40_k0  budget_K  -36.74
    y_s5_i32_j40_k1  rec_s5_edge_32_40_choose_one  1
    y_s5_i32_j40_k1  budget_K  -15.11
    y_s5_i32_j40_k2  rec_s5_edge_32_40_choose_one  1
    y_s5_i32_j40_k2  budget_K  -35.74
    y_s5_i33_j35_k0  rec_s5_edge_33_35_choose_one  1
    y_s5_i33_j35_k0  budget_K  -6.18
    y_s5_i33_j35_k1  rec_s5_edge_33_35_choose_one  1
    y_s5_i33_j35_k1  budget_K  44.42
    y_s5_i33_j35_k2  rec_s5_edge_33_35_choose_one  1
    y_s5_i33_j35_k2  budget_K  -6.5200000000000005e+00
    y_s5_i34_j33_k0  rec_s5_edge_34_33_choose_one  1
    y_s5_i34_j33_k0  budget_K  -13.35
    y_s5_i34_j33_k1  rec_s5_edge_34_33_choose_one  1
    y_s5_i34_j33_k1  budget_K  -11.33
    y_s5_i34_j33_k2  rec_s5_edge_34_33_choose_one  1
    y_s5_i34_j33_k2  budget_K  -6.99
    y_s5_i35_j32_k0  rec_s5_edge_35_32_choose_one  1
    y_s5_i35_j32_k0  budget_K  -1.5280000000000001e+01
    y_s5_i35_j32_k1  rec_s5_edge_35_32_choose_one  1
    y_s5_i35_j32_k1  budget_K  -12.38
    y_s5_i35_j32_k2  rec_s5_edge_35_32_choose_one  1
    y_s5_i35_j32_k2  budget_K  -8.3700000000000010e+00
    y_s5_i36_j49_k0  rec_s5_edge_36_49_choose_one  1
    y_s5_i36_j49_k0  budget_K  -1.1500000000000001e+00
    y_s5_i36_j49_k1  rec_s5_edge_36_49_choose_one  1
    y_s5_i36_j49_k1  budget_K  45.12
    y_s5_i36_j49_k2  rec_s5_edge_36_49_choose_one  1
    y_s5_i36_j49_k2  budget_K  6.01
    y_s5_i37_j39_k0  rec_s5_edge_37_39_choose_one  1
    y_s5_i37_j39_k0  budget_K  -43.84
    y_s5_i37_j39_k1  rec_s5_edge_37_39_choose_one  1
    y_s5_i37_j39_k1  budget_K  -32.18
    y_s5_i37_j39_k2  rec_s5_edge_37_39_choose_one  1
    y_s5_i37_j39_k2  budget_K  17.63
    y_s5_i38_j15_k0  rec_s5_edge_38_15_choose_one  1
    y_s5_i38_j15_k0  budget_K  -5.11
    y_s5_i38_j15_k1  rec_s5_edge_38_15_choose_one  1
    y_s5_i38_j15_k1  budget_K  -2.46
    y_s5_i38_j15_k2  rec_s5_edge_38_15_choose_one  1
    y_s5_i38_j15_k2  budget_K  -5.32
    y_s5_i39_j53_k0  rec_s5_edge_39_53_choose_one  1
    y_s5_i39_j53_k0  budget_K  -27.97
    y_s5_i39_j53_k1  rec_s5_edge_39_53_choose_one  1
    y_s5_i39_j53_k1  budget_K  277.77
    y_s5_i39_j53_k2  rec_s5_edge_39_53_choose_one  1
    y_s5_i39_j53_k2  budget_K  -9.34
    y_s5_i40_j37_k0  rec_s5_edge_40_37_choose_one  1
    y_s5_i40_j37_k0  budget_K  213.86
    y_s5_i40_j37_k1  rec_s5_edge_40_37_choose_one  1
    y_s5_i40_j37_k1  budget_K  13
    y_s5_i40_j37_k2  rec_s5_edge_40_37_choose_one  1
    y_s5_i40_j37_k2  budget_K  -28.48
    y_s5_i41_j4_k0  rec_s5_edge_41_4_choose_one  1
    y_s5_i41_j4_k0  budget_K  -1.72
    y_s5_i41_j4_k1  rec_s5_edge_41_4_choose_one  1
    y_s5_i41_j4_k1  budget_K  -3.98
    y_s5_i41_j4_k2  rec_s5_edge_41_4_choose_one  1
    y_s5_i41_j4_k2  budget_K  -4.55
    y_s5_i42_j44_k0  rec_s5_edge_42_44_choose_one  1
    y_s5_i42_j44_k0  budget_K  -11.49
    y_s5_i42_j44_k1  rec_s5_edge_42_44_choose_one  1
    y_s5_i42_j44_k1  budget_K  1.24
    y_s5_i42_j44_k2  rec_s5_edge_42_44_choose_one  1
    y_s5_i42_j44_k2  budget_K  -11.6
    y_s5_i43_j19_k0  rec_s5_edge_43_19_choose_one  1
    y_s5_i43_j19_k0  budget_K  -7.72
    y_s5_i43_j19_k1  rec_s5_edge_43_19_choose_one  1
    y_s5_i43_j19_k1  budget_K  -5.49
    y_s5_i43_j19_k2  rec_s5_edge_43_19_choose_one  1
    y_s5_i43_j19_k2  budget_K  16.9
    y_s5_i44_j50_k0  rec_s5_edge_44_50_choose_one  1
    y_s5_i44_j50_k0  budget_K  -1.3950000000000001e+01
    y_s5_i44_j50_k1  rec_s5_edge_44_50_choose_one  1
    y_s5_i44_j50_k1  budget_K  744.46
    y_s5_i44_j50_k2  rec_s5_edge_44_50_choose_one  1
    y_s5_i44_j50_k2  budget_K  -17.56
    y_s5_i45_j18_k0  rec_s5_edge_45_18_choose_one  1
    y_s5_i45_j18_k0  budget_K  -7.23
    y_s5_i45_j18_k1  rec_s5_edge_45_18_choose_one  1
    y_s5_i45_j18_k1  budget_K  41.39
    y_s5_i45_j18_k2  rec_s5_edge_45_18_choose_one  1
    y_s5_i45_j18_k2  budget_K  -9.71
    y_s5_i46_j42_k0  rec_s5_edge_46_42_choose_one  1
    y_s5_i46_j42_k0  budget_K  -8.18
    y_s5_i46_j42_k1  rec_s5_edge_46_42_choose_one  1
    y_s5_i46_j42_k1  budget_K  -9.31
    y_s5_i46_j42_k2  rec_s5_edge_46_42_choose_one  1
    y_s5_i46_j42_k2  budget_K  -10.25
    y_s5_i47_j41_k0  rec_s5_edge_47_41_choose_one  1
    y_s5_i47_j41_k0  budget_K  1.1
    y_s5_i47_j41_k1  rec_s5_edge_47_41_choose_one  1
    y_s5_i47_j41_k1  budget_K  -7.5200000000000005e+00
    y_s5_i47_j41_k2  rec_s5_edge_47_41_choose_one  1
    y_s5_i47_j41_k2  budget_K  -1.3780000000000001e+01
    y_s5_i48_j51_k0  rec_s5_edge_48_51_choose_one  1
    y_s5_i48_j51_k0  budget_K  1.6400000000000001e+00
    y_s5_i48_j51_k1  rec_s5_edge_48_51_choose_one  1
    y_s5_i48_j51_k1  budget_K  3.4660000000000004e+01
    y_s5_i48_j51_k2  rec_s5_edge_48_51_choose_one  1
    y_s5_i48_j51_k2  budget_K  -10.61
    y_s5_i49_j26_k0  rec_s5_edge_49_26_choose_one  1
    y_s5_i49_j26_k0  budget_K  0.21
    y_s5_i49_j26_k1  rec_s5_edge_49_26_choose_one  1
    y_s5_i49_j26_k1  budget_K  -6.04
    y_s5_i49_j26_k2  rec_s5_edge_49_26_choose_one  1
    y_s5_i49_j26_k2  budget_K  -5.46
    y_s5_i50_j48_k0  rec_s5_edge_50_48_choose_one  1
    y_s5_i50_j48_k0  budget_K  -12.98
    y_s5_i50_j48_k1  rec_s5_edge_50_48_choose_one  1
    y_s5_i50_j48_k1  budget_K  -11.21
    y_s5_i50_j48_k2  rec_s5_edge_50_48_choose_one  1
    y_s5_i50_j48_k2  budget_K  59.51
    y_s5_i51_j36_k0  rec_s5_edge_51_36_choose_one  1
    y_s5_i51_j36_k0  budget_K  -18.85
    y_s5_i51_j36_k1  rec_s5_edge_51_36_choose_one  1
    y_s5_i51_j36_k1  budget_K  -15.76
    y_s5_i51_j36_k2  rec_s5_edge_51_36_choose_one  1
    y_s5_i51_j36_k2  budget_K  130.96
    y_s5_i52_j47_k0  rec_s5_edge_52_47_choose_one  1
    y_s5_i52_j47_k0  budget_K  -8.45
    y_s5_i52_j47_k1  rec_s5_edge_52_47_choose_one  1
    y_s5_i52_j47_k1  budget_K  -0.66
    y_s5_i52_j47_k2  rec_s5_edge_52_47_choose_one  1
    y_s5_i52_j47_k2  budget_K  -4.54
    y_s5_i53_j43_k0  rec_s5_edge_53_43_choose_one  1
    y_s5_i53_j43_k0  budget_K  -1.52
    y_s5_i53_j43_k1  rec_s5_edge_53_43_choose_one  1
    y_s5_i53_j43_k1  budget_K  5.07
    y_s5_i53_j43_k2  rec_s5_edge_53_43_choose_one  1
    y_s5_i53_j43_k2  budget_K  0.24
    y_s62_i0_j2_k0  rec_s62_edge_0_2_choose_one  1
    y_s62_i0_j2_k0  budget_K  -1.18
    y_s62_i0_j2_k1  rec_s62_edge_0_2_choose_one  1
    y_s62_i0_j2_k1  budget_K  -0.26
    y_s62_i0_j2_k2  rec_s62_edge_0_2_choose_one  1
    y_s62_i0_j2_k2  budget_K  -1.04
    y_s62_i1_j22_k0  rec_s62_edge_1_22_choose_one  1
    y_s62_i1_j22_k0  budget_K  -3.73
    y_s62_i1_j22_k1  rec_s62_edge_1_22_choose_one  1
    y_s62_i1_j22_k1  budget_K  -4.3
    y_s62_i1_j22_k2  rec_s62_edge_1_22_choose_one  1
    y_s62_i1_j22_k2  budget_K  -4.87
    y_s62_i2_j1_k0  rec_s62_edge_2_1_choose_one  1
    y_s62_i2_j1_k0  budget_K  -1.07
    y_s62_i2_j1_k1  rec_s62_edge_2_1_choose_one  1
    y_s62_i2_j1_k1  budget_K  -0.98
    y_s62_i2_j1_k2  rec_s62_edge_2_1_choose_one  1
    y_s62_i2_j1_k2  budget_K  -1.42
    y_s62_i3_j9_k0  rec_s62_edge_3_9_choose_one  1
    y_s62_i3_j9_k0  budget_K  -11.48
    y_s62_i3_j9_k1  rec_s62_edge_3_9_choose_one  1
    y_s62_i3_j9_k1  budget_K  -9.39
    y_s62_i3_j9_k2  rec_s62_edge_3_9_choose_one  1
    y_s62_i3_j9_k2  budget_K  1.73
    y_s62_i4_j34_k0  rec_s62_edge_4_34_choose_one  1
    y_s62_i4_j34_k0  budget_K  136.3
    y_s62_i4_j34_k1  rec_s62_edge_4_34_choose_one  1
    y_s62_i4_j34_k1  budget_K  -16.88
    y_s62_i4_j34_k2  rec_s62_edge_4_34_choose_one  1
    y_s62_i4_j34_k2  budget_K  -1.8490000000000002e+01
    y_s62_i5_j0_k0  rec_s62_edge_5_0_choose_one  1
    y_s62_i5_j0_k0  budget_K  -5.53
    y_s62_i5_j0_k1  rec_s62_edge_5_0_choose_one  1
    y_s62_i5_j0_k1  budget_K  14.88
    y_s62_i5_j0_k2  rec_s62_edge_5_0_choose_one  1
    y_s62_i5_j0_k2  budget_K  22.01
    y_s62_i6_j52_k0  rec_s62_edge_6_52_choose_one  1
    y_s62_i6_j52_k0  budget_K  -5.3100000000000005e+00
    y_s62_i6_j52_k1  rec_s62_edge_6_52_choose_one  1
    y_s62_i6_j52_k1  budget_K  14
    y_s62_i6_j52_k2  rec_s62_edge_6_52_choose_one  1
    y_s62_i6_j52_k2  budget_K  50.19
    y_s62_i7_j3_k0  rec_s62_edge_7_3_choose_one  1
    y_s62_i7_j3_k0  budget_K  -3.3200000000000003e+00
    y_s62_i7_j3_k1  rec_s62_edge_7_3_choose_one  1
    y_s62_i7_j3_k1  budget_K  -1.06
    y_s62_i7_j3_k2  rec_s62_edge_7_3_choose_one  1
    y_s62_i7_j3_k2  budget_K  -2.72
    y_s62_i8_j10_k0  rec_s62_edge_8_10_choose_one  1
    y_s62_i8_j10_k0  budget_K  31.21
    y_s62_i8_j10_k1  rec_s62_edge_8_10_choose_one  1
    y_s62_i8_j10_k1  budget_K  -2.86
    y_s62_i8_j10_k2  rec_s62_edge_8_10_choose_one  1
    y_s62_i8_j10_k2  budget_K  -4.58
    y_s62_i9_j6_k0  rec_s62_edge_9_6_choose_one  1
    y_s62_i9_j6_k0  budget_K  -0.14
    y_s62_i9_j6_k1  rec_s62_edge_9_6_choose_one  1
    y_s62_i9_j6_k1  budget_K  19.31
    y_s62_i9_j6_k2  rec_s62_edge_9_6_choose_one  1
    y_s62_i9_j6_k2  budget_K  -6.8100000000000005e+00
    y_s62_i10_j5_k0  rec_s62_edge_10_5_choose_one  1
    y_s62_i10_j5_k0  budget_K  -1.57
    y_s62_i10_j5_k1  rec_s62_edge_10_5_choose_one  1
    y_s62_i10_j5_k1  budget_K  1.8150000000000002e+01
    y_s62_i10_j5_k2  rec_s62_edge_10_5_choose_one  1
    y_s62_i10_j5_k2  budget_K  -2.31
    y_s62_i11_j8_k0  rec_s62_edge_11_8_choose_one  1
    y_s62_i11_j8_k0  budget_K  -4.7000000000000003e-01
    y_s62_i11_j8_k1  rec_s62_edge_11_8_choose_one  1
    y_s62_i11_j8_k1  budget_K  -2.22
    y_s62_i11_j8_k2  rec_s62_edge_11_8_choose_one  1
    y_s62_i11_j8_k2  budget_K  -3.33
    y_s62_i12_j11_k0  rec_s62_edge_12_11_choose_one  1
    y_s62_i12_j11_k0  budget_K  -0.77
    y_s62_i12_j11_k1  rec_s62_edge_12_11_choose_one  1
    y_s62_i12_j11_k1  budget_K  -1.54
    y_s62_i12_j11_k2  rec_s62_edge_12_11_choose_one  1
    y_s62_i12_j11_k2  budget_K  -0.11
    y_s62_i13_j14_k0  rec_s62_edge_13_14_choose_one  1
    y_s62_i13_j14_k0  budget_K  6.28
    y_s62_i13_j14_k1  rec_s62_edge_13_14_choose_one  1
    y_s62_i13_j14_k1  budget_K  -6.2
    y_s62_i13_j14_k2  rec_s62_edge_13_14_choose_one  1
    y_s62_i13_j14_k2  budget_K  1.2540000000000001e+01
    y_s62_i14_j12_k0  rec_s62_edge_14_12_choose_one  1
    y_s62_i14_j12_k0  budget_K  -10.75
    y_s62_i14_j12_k1  rec_s62_edge_14_12_choose_one  1
    y_s62_i14_j12_k1  budget_K  1.2790000000000001e+01
    y_s62_i14_j12_k2  rec_s62_edge_14_12_choose_one  1
    y_s62_i14_j12_k2  budget_K  -4.23
    y_s62_i15_j13_k0  rec_s62_edge_15_13_choose_one  1
    y_s62_i15_j13_k0  budget_K  -12.77
    y_s62_i15_j13_k1  rec_s62_edge_15_13_choose_one  1
    y_s62_i15_j13_k1  budget_K  -10.59
    y_s62_i15_j13_k2  rec_s62_edge_15_13_choose_one  1
    y_s62_i15_j13_k2  budget_K  0.92
    y_s62_i16_j17_k0  rec_s62_edge_16_17_choose_one  1
    y_s62_i16_j17_k0  budget_K  -2.74
    y_s62_i16_j17_k1  rec_s62_edge_16_17_choose_one  1
    y_s62_i16_j17_k1  budget_K  -4.53
    y_s62_i16_j17_k2  rec_s62_edge_16_17_choose_one  1
    y_s62_i16_j17_k2  budget_K  -5.2700000000000005e+00
    y_s62_i17_j38_k0  rec_s62_edge_17_38_choose_one  1
    y_s62_i17_j38_k0  budget_K  -3.5100000000000002e+00
    y_s62_i17_j38_k1  rec_s62_edge_17_38_choose_one  1
    y_s62_i17_j38_k1  budget_K  5.3100000000000005e+00
    y_s62_i17_j38_k2  rec_s62_edge_17_38_choose_one  1
    y_s62_i17_j38_k2  budget_K  2.81
    y_s62_i18_j20_k0  rec_s62_edge_18_20_choose_one  1
    y_s62_i18_j20_k0  budget_K  -1.5
    y_s62_i18_j20_k1  rec_s62_edge_18_20_choose_one  1
    y_s62_i18_j20_k1  budget_K  -1.54
    y_s62_i18_j20_k2  rec_s62_edge_18_20_choose_one  1
    y_s62_i18_j20_k2  budget_K  0.52
    y_s62_i19_j45_k0  rec_s62_edge_19_45_choose_one  1
    y_s62_i19_j45_k0  budget_K  0.07
    y_s62_i19_j45_k1  rec_s62_edge_19_45_choose_one  1
    y_s62_i19_j45_k1  budget_K  -1.76
    y_s62_i19_j45_k2  rec_s62_edge_19_45_choose_one  1
    y_s62_i19_j45_k2  budget_K  -1.6500000000000001e+00
    y_s62_i20_j16_k0  rec_s62_edge_20_16_choose_one  1
    y_s62_i20_j16_k0  budget_K  8.97
    y_s62_i20_j16_k1  rec_s62_edge_20_16_choose_one  1
    y_s62_i20_j16_k1  budget_K  -6.1000000000000005e+00
    y_s62_i20_j16_k2  rec_s62_edge_20_16_choose_one  1
    y_s62_i20_j16_k2  budget_K  3.8300000000000004e+01
    y_s62_i21_j24_k0  rec_s62_edge_21_24_choose_one  1
    y_s62_i21_j24_k0  budget_K  -4.24
    y_s62_i21_j24_k1  rec_s62_edge_21_24_choose_one  1
    y_s62_i21_j24_k1  budget_K  -4.36
    y_s62_i21_j24_k2  rec_s62_edge_21_24_choose_one  1
    y_s62_i21_j24_k2  budget_K  0.05
    y_s62_i22_j21_k0  rec_s62_edge_22_21_choose_one  1
    y_s62_i22_j21_k0  budget_K  26.57
    y_s62_i22_j21_k1  rec_s62_edge_22_21_choose_one  1
    y_s62_i22_j21_k1  budget_K  -6.2700000000000005e+00
    y_s62_i22_j21_k2  rec_s62_edge_22_21_choose_one  1
    y_s62_i22_j21_k2  budget_K  -5.09
    y_s62_i23_j46_k0  rec_s62_edge_23_46_choose_one  1
    y_s62_i23_j46_k0  budget_K  1.03
    y_s62_i23_j46_k1  rec_s62_edge_23_46_choose_one  1
    y_s62_i23_j46_k1  budget_K  -12.4
    y_s62_i23_j46_k2  rec_s62_edge_23_46_choose_one  1
    y_s62_i23_j46_k2  budget_K  1.2370000000000001e+01
    y_s62_i24_j23_k0  rec_s62_edge_24_23_choose_one  1
    y_s62_i24_j23_k0  budget_K  8.85
    y_s62_i24_j23_k1  rec_s62_edge_24_23_choose_one  1
    y_s62_i24_j23_k1  budget_K  -3.46
    y_s62_i24_j23_k2  rec_s62_edge_24_23_choose_one  1
    y_s62_i24_j23_k2  budget_K  -3.24
    y_s62_i25_j31_k0  rec_s62_edge_25_31_choose_one  1
    y_s62_i25_j31_k0  budget_K  4.7000000000000003e-01
    y_s62_i25_j31_k1  rec_s62_edge_25_31_choose_one  1
    y_s62_i25_j31_k1  budget_K  0.68
    y_s62_i25_j31_k2  rec_s62_edge_25_31_choose_one  1
    y_s62_i25_j31_k2  budget_K  -4.46
    y_s62_i26_j27_k0  rec_s62_edge_26_27_choose_one  1
    y_s62_i26_j27_k0  budget_K  -1.8
    y_s62_i26_j27_k1  rec_s62_edge_26_27_choose_one  1
    y_s62_i26_j27_k1  budget_K  -2.9
    y_s62_i26_j27_k2  rec_s62_edge_26_27_choose_one  1
    y_s62_i26_j27_k2  budget_K  -3.46
    y_s62_i27_j28_k0  rec_s62_edge_27_28_choose_one  1
    y_s62_i27_j28_k0  budget_K  20.88
    y_s62_i27_j28_k1  rec_s62_edge_27_28_choose_one  1
    y_s62_i27_j28_k1  budget_K  -3.42
    y_s62_i27_j28_k2  rec_s62_edge_27_28_choose_one  1
    y_s62_i27_j28_k2  budget_K  -3.3000000000000003e+00
    y_s62_i28_j25_k0  rec_s62_edge_28_25_choose_one  1
    y_s62_i28_j25_k0  budget_K  -0.64
    y_s62_i28_j25_k1  rec_s62_edge_28_25_choose_one  1
    y_s62_i28_j25_k1  budget_K  -2.54
    y_s62_i28_j25_k2  rec_s62_edge_28_25_choose_one  1
    y_s62_i28_j25_k2  budget_K  -2.61
    y_s62_i29_j7_k0  rec_s62_edge_29_7_choose_one  1
    y_s62_i29_j7_k0  budget_K  1.1540000000000001e+01
    y_s62_i29_j7_k1  rec_s62_edge_29_7_choose_one  1
    y_s62_i29_j7_k1  budget_K  -7.5
    y_s62_i29_j7_k2  rec_s62_edge_29_7_choose_one  1
    y_s62_i29_j7_k2  budget_K  -7.76
    y_s62_i30_j29_k0  rec_s62_edge_30_29_choose_one  1
    y_s62_i30_j29_k0  budget_K  -1.6
    y_s62_i30_j29_k1  rec_s62_edge_30_29_choose_one  1
    y_s62_i30_j29_k1  budget_K  -2.94
    y_s62_i30_j29_k2  rec_s62_edge_30_29_choose_one  1
    y_s62_i30_j29_k2  budget_K  -3.52
    y_s62_i31_j30_k0  rec_s62_edge_31_30_choose_one  1
    y_s62_i31_j30_k0  budget_K  -2.3000000000000003e+00
    y_s62_i31_j30_k1  rec_s62_edge_31_30_choose_one  1
    y_s62_i31_j30_k1  budget_K  -3.13
    y_s62_i31_j30_k2  rec_s62_edge_31_30_choose_one  1
    y_s62_i31_j30_k2  budget_K  20.86
    y_s62_i32_j40_k0  rec_s62_edge_32_40_choose_one  1
    y_s62_i32_j40_k0  budget_K  -19.54
    y_s62_i32_j40_k1  rec_s62_edge_32_40_choose_one  1
    y_s62_i32_j40_k1  budget_K  -2.8990000000000002e+01
    y_s62_i32_j40_k2  rec_s62_edge_32_40_choose_one  1
    y_s62_i32_j40_k2  budget_K  -22.73
    y_s62_i33_j35_k0  rec_s62_edge_33_35_choose_one  1
    y_s62_i33_j35_k0  budget_K  -5.8500000000000005e+00
    y_s62_i33_j35_k1  rec_s62_edge_33_35_choose_one  1
    y_s62_i33_j35_k1  budget_K  -5.54
    y_s62_i33_j35_k2  rec_s62_edge_33_35_choose_one  1
    y_s62_i33_j35_k2  budget_K  -2.35
    y_s62_i34_j33_k0  rec_s62_edge_34_33_choose_one  1
    y_s62_i34_j33_k0  budget_K  -15.31
    y_s62_i34_j33_k1  rec_s62_edge_34_33_choose_one  1
    y_s62_i34_j33_k1  budget_K  -8.08
    y_s62_i34_j33_k2  rec_s62_edge_34_33_choose_one  1
    y_s62_i34_j33_k2  budget_K  -1.2450000000000001e+01
    y_s62_i35_j32_k0  rec_s62_edge_35_32_choose_one  1
    y_s62_i35_j32_k0  budget_K  -9.31
    y_s62_i35_j32_k1  rec_s62_edge_35_32_choose_one  1
    y_s62_i35_j32_k1  budget_K  -4.71
    y_s62_i35_j32_k2  rec_s62_edge_35_32_choose_one  1
    y_s62_i35_j32_k2  budget_K  -5.58
    y_s62_i36_j49_k0  rec_s62_edge_36_49_choose_one  1
    y_s62_i36_j49_k0  budget_K  -1.84
    y_s62_i36_j49_k1  rec_s62_edge_36_49_choose_one  1
    y_s62_i36_j49_k1  budget_K  1.81
    y_s62_i36_j49_k2  rec_s62_edge_36_49_choose_one  1
    y_s62_i36_j49_k2  budget_K  9.4000000000000006e-01
    y_s62_i37_j39_k0  rec_s62_edge_37_39_choose_one  1
    y_s62_i37_j39_k0  budget_K  -9.19
    y_s62_i37_j39_k1  rec_s62_edge_37_39_choose_one  1
    y_s62_i37_j39_k1  budget_K  -46.4
    y_s62_i37_j39_k2  rec_s62_edge_37_39_choose_one  1
    y_s62_i37_j39_k2  budget_K  -15.83
    y_s62_i38_j15_k0  rec_s62_edge_38_15_choose_one  1
    y_s62_i38_j15_k0  budget_K  1.6740000000000002e+01
    y_s62_i38_j15_k1  rec_s62_edge_38_15_choose_one  1
    y_s62_i38_j15_k1  budget_K  -7.7
    y_s62_i38_j15_k2  rec_s62_edge_38_15_choose_one  1
    y_s62_i38_j15_k2  budget_K  -5.47
    y_s62_i39_j53_k0  rec_s62_edge_39_53_choose_one  1
    y_s62_i39_j53_k0  budget_K  -6.96
    y_s62_i39_j53_k1  rec_s62_edge_39_53_choose_one  1
    y_s62_i39_j53_k1  budget_K  -22.07
    y_s62_i39_j53_k2  rec_s62_edge_39_53_choose_one  1
    y_s62_i39_j53_k2  budget_K  48.28
    y_s62_i40_j37_k0  rec_s62_edge_40_37_choose_one  1
    y_s62_i40_j37_k0  budget_K  19.38
    y_s62_i40_j37_k1  rec_s62_edge_40_37_choose_one  1
    y_s62_i40_j37_k1  budget_K  -2.7490000000000002e+01
    y_s62_i40_j37_k2  rec_s62_edge_40_37_choose_one  1
    y_s62_i40_j37_k2  budget_K  35
    y_s62_i41_j4_k0  rec_s62_edge_41_4_choose_one  1
    y_s62_i41_j4_k0  budget_K  -5.22
    y_s62_i41_j4_k1  rec_s62_edge_41_4_choose_one  1
    y_s62_i41_j4_k1  budget_K  24.87
    y_s62_i41_j4_k2  rec_s62_edge_41_4_choose_one  1
    y_s62_i41_j4_k2  budget_K  -5.05
    y_s62_i42_j44_k0  rec_s62_edge_42_44_choose_one  1
    y_s62_i42_j44_k0  budget_K  -4.0600000000000005e+00
    y_s62_i42_j44_k1  rec_s62_edge_42_44_choose_one  1
    y_s62_i42_j44_k1  budget_K  46.46
    y_s62_i42_j44_k2  rec_s62_edge_42_44_choose_one  1
    y_s62_i42_j44_k2  budget_K  -1.1700000000000001e+01
    y_s62_i43_j19_k0  rec_s62_edge_43_19_choose_one  1
    y_s62_i43_j19_k0  budget_K  2.33
    y_s62_i43_j19_k1  rec_s62_edge_43_19_choose_one  1
    y_s62_i43_j19_k1  budget_K  -13.74
    y_s62_i43_j19_k2  rec_s62_edge_43_19_choose_one  1
    y_s62_i43_j19_k2  budget_K  -11.36
    y_s62_i44_j50_k0  rec_s62_edge_44_50_choose_one  1
    y_s62_i44_j50_k0  budget_K  19.64
    y_s62_i44_j50_k1  rec_s62_edge_44_50_choose_one  1
    y_s62_i44_j50_k1  budget_K  -36.28
    y_s62_i44_j50_k2  rec_s62_edge_44_50_choose_one  1
    y_s62_i44_j50_k2  budget_K  -36.34
    y_s62_i45_j18_k0  rec_s62_edge_45_18_choose_one  1
    y_s62_i45_j18_k0  budget_K  -8.02
    y_s62_i45_j18_k1  rec_s62_edge_45_18_choose_one  1
    y_s62_i45_j18_k1  budget_K  -5.99
    y_s62_i45_j18_k2  rec_s62_edge_45_18_choose_one  1
    y_s62_i45_j18_k2  budget_K  1.68
    y_s62_i46_j42_k0  rec_s62_edge_46_42_choose_one  1
    y_s62_i46_j42_k0  budget_K  -5.7700000000000005e+00
    y_s62_i46_j42_k1  rec_s62_edge_46_42_choose_one  1
    y_s62_i46_j42_k1  budget_K  -8.88
    y_s62_i46_j42_k2  rec_s62_edge_46_42_choose_one  1
    y_s62_i46_j42_k2  budget_K  7.34
    y_s62_i47_j41_k0  rec_s62_edge_47_41_choose_one  1
    y_s62_i47_j41_k0  budget_K  100.06
    y_s62_i47_j41_k1  rec_s62_edge_47_41_choose_one  1
    y_s62_i47_j41_k1  budget_K  15.05
    y_s62_i47_j41_k2  rec_s62_edge_47_41_choose_one  1
    y_s62_i47_j41_k2  budget_K  10.93
    y_s62_i48_j51_k0  rec_s62_edge_48_51_choose_one  1
    y_s62_i48_j51_k0  budget_K  -11.23
    y_s62_i48_j51_k1  rec_s62_edge_48_51_choose_one  1
    y_s62_i48_j51_k1  budget_K  -8.08
    y_s62_i48_j51_k2  rec_s62_edge_48_51_choose_one  1
    y_s62_i48_j51_k2  budget_K  -1.35
    y_s62_i49_j26_k0  rec_s62_edge_49_26_choose_one  1
    y_s62_i49_j26_k0  budget_K  2.63
    y_s62_i49_j26_k1  rec_s62_edge_49_26_choose_one  1
    y_s62_i49_j26_k1  budget_K  -5.3500000000000005e+00
    y_s62_i49_j26_k2  rec_s62_edge_49_26_choose_one  1
    y_s62_i49_j26_k2  budget_K  -2.17
    y_s62_i50_j48_k0  rec_s62_edge_50_48_choose_one  1
    y_s62_i50_j48_k0  budget_K  -6.26
    y_s62_i50_j48_k1  rec_s62_edge_50_48_choose_one  1
    y_s62_i50_j48_k1  budget_K  54.29
    y_s62_i50_j48_k2  rec_s62_edge_50_48_choose_one  1
    y_s62_i50_j48_k2  budget_K  -10
    y_s62_i51_j36_k0  rec_s62_edge_51_36_choose_one  1
    y_s62_i51_j36_k0  budget_K  69.49
    y_s62_i51_j36_k1  rec_s62_edge_51_36_choose_one  1
    y_s62_i51_j36_k1  budget_K  -26.26
    y_s62_i51_j36_k2  rec_s62_edge_51_36_choose_one  1
    y_s62_i51_j36_k2  budget_K  -22.02
    y_s62_i52_j47_k0  rec_s62_edge_52_47_choose_one  1
    y_s62_i52_j47_k0  budget_K  -7.79
    y_s62_i52_j47_k1  rec_s62_edge_52_47_choose_one  1
    y_s62_i52_j47_k1  budget_K  -5.36
    y_s62_i52_j47_k2  rec_s62_edge_52_47_choose_one  1
    y_s62_i52_j47_k2  budget_K  -9.56
    y_s62_i53_j43_k0  rec_s62_edge_53_43_choose_one  1
    y_s62_i53_j43_k0  budget_K  9.3700000000000010e+00
    y_s62_i53_j43_k1  rec_s62_edge_53_43_choose_one  1
    y_s62_i53_j43_k1  budget_K  -6.76
    y_s62_i53_j43_k2  rec_s62_edge_53_43_choose_one  1
    y_s62_i53_j43_k2  budget_K  -5.54
    y_s78_i0_j2_k0  rec_s78_edge_0_2_choose_one  1
    y_s78_i0_j2_k0  budget_K  -0.28
    y_s78_i0_j2_k1  rec_s78_edge_0_2_choose_one  1
    y_s78_i0_j2_k1  budget_K  -9.4000000000000006e-01
    y_s78_i0_j2_k2  rec_s78_edge_0_2_choose_one  1
    y_s78_i0_j2_k2  budget_K  -4.7000000000000003e-01
    y_s78_i1_j22_k0  rec_s78_edge_1_22_choose_one  1
    y_s78_i1_j22_k0  budget_K  5.4
    y_s78_i1_j22_k1  rec_s78_edge_1_22_choose_one  1
    y_s78_i1_j22_k1  budget_K  -5.2
    y_s78_i1_j22_k2  rec_s78_edge_1_22_choose_one  1
    y_s78_i1_j22_k2  budget_K  -2.72
    y_s78_i2_j1_k0  rec_s78_edge_2_1_choose_one  1
    y_s78_i2_j1_k0  budget_K  -0.43
    y_s78_i2_j1_k1  rec_s78_edge_2_1_choose_one  1
    y_s78_i2_j1_k1  budget_K  -1.01
    y_s78_i2_j1_k2  rec_s78_edge_2_1_choose_one  1
    y_s78_i2_j1_k2  budget_K  -1.34
    y_s78_i3_j9_k0  rec_s78_edge_3_9_choose_one  1
    y_s78_i3_j9_k0  budget_K  -12.93
    y_s78_i3_j9_k1  rec_s78_edge_3_9_choose_one  1
    y_s78_i3_j9_k1  budget_K  -10.27
    y_s78_i3_j9_k2  rec_s78_edge_3_9_choose_one  1
    y_s78_i3_j9_k2  budget_K  -11.61
    y_s78_i4_j34_k0  rec_s78_edge_4_34_choose_one  1
    y_s78_i4_j34_k0  budget_K  83.98
    y_s78_i4_j34_k1  rec_s78_edge_4_34_choose_one  1
    y_s78_i4_j34_k1  budget_K  10.07
    y_s78_i4_j34_k2  rec_s78_edge_4_34_choose_one  1
    y_s78_i4_j34_k2  budget_K  -6.1400000000000006e+00
    y_s78_i5_j0_k0  rec_s78_edge_5_0_choose_one  1
    y_s78_i5_j0_k0  budget_K  -4.7000000000000003e-01
    y_s78_i5_j0_k1  rec_s78_edge_5_0_choose_one  1
    y_s78_i5_j0_k1  budget_K  -3.5500000000000003e+00
    y_s78_i5_j0_k2  rec_s78_edge_5_0_choose_one  1
    y_s78_i5_j0_k2  budget_K  -4.69
    y_s78_i6_j52_k0  rec_s78_edge_6_52_choose_one  1
    y_s78_i6_j52_k0  budget_K  -6.99
    y_s78_i6_j52_k1  rec_s78_edge_6_52_choose_one  1
    y_s78_i6_j52_k1  budget_K  -9.48
    y_s78_i6_j52_k2  rec_s78_edge_6_52_choose_one  1
    y_s78_i6_j52_k2  budget_K  -2.48
    y_s78_i7_j3_k0  rec_s78_edge_7_3_choose_one  1
    y_s78_i7_j3_k0  budget_K  2.63
    y_s78_i7_j3_k1  rec_s78_edge_7_3_choose_one  1
    y_s78_i7_j3_k1  budget_K  -2.98
    y_s78_i7_j3_k2  rec_s78_edge_7_3_choose_one  1
    y_s78_i7_j3_k2  budget_K  -0.05
    y_s78_i8_j10_k0  rec_s78_edge_8_10_choose_one  1
    y_s78_i8_j10_k0  budget_K  -5.61
    y_s78_i8_j10_k1  rec_s78_edge_8_10_choose_one  1
    y_s78_i8_j10_k1  budget_K  -5.76
    y_s78_i8_j10_k2  rec_s78_edge_8_10_choose_one  1
    y_s78_i8_j10_k2  budget_K  -2.97
    y_s78_i9_j6_k0  rec_s78_edge_9_6_choose_one  1
    y_s78_i9_j6_k0  budget_K  -7.38
    y_s78_i9_j6_k1  rec_s78_edge_9_6_choose_one  1
    y_s78_i9_j6_k1  budget_K  33.44
    y_s78_i9_j6_k2  rec_s78_edge_9_6_choose_one  1
    y_s78_i9_j6_k2  budget_K  35.34
    y_s78_i10_j5_k0  rec_s78_edge_10_5_choose_one  1
    y_s78_i10_j5_k0  budget_K  27.48
    y_s78_i10_j5_k1  rec_s78_edge_10_5_choose_one  1
    y_s78_i10_j5_k1  budget_K  -3.3000000000000003e+00
    y_s78_i10_j5_k2  rec_s78_edge_10_5_choose_one  1
    y_s78_i10_j5_k2  budget_K  -4.83
    y_s78_i11_j8_k0  rec_s78_edge_11_8_choose_one  1
    y_s78_i11_j8_k0  budget_K  5.18
    y_s78_i11_j8_k1  rec_s78_edge_11_8_choose_one  1
    y_s78_i11_j8_k1  budget_K  -1.54
    y_s78_i11_j8_k2  rec_s78_edge_11_8_choose_one  1
    y_s78_i11_j8_k2  budget_K  -2.4
    y_s78_i12_j11_k0  rec_s78_edge_12_11_choose_one  1
    y_s78_i12_j11_k0  budget_K  -1.6500000000000001e+00
    y_s78_i12_j11_k1  rec_s78_edge_12_11_choose_one  1
    y_s78_i12_j11_k1  budget_K  -1.04
    y_s78_i12_j11_k2  rec_s78_edge_12_11_choose_one  1
    y_s78_i12_j11_k2  budget_K  -1.52
    y_s78_i13_j14_k0  rec_s78_edge_13_14_choose_one  1
    y_s78_i13_j14_k0  budget_K  -0.49
    y_s78_i13_j14_k1  rec_s78_edge_13_14_choose_one  1
    y_s78_i13_j14_k1  budget_K  -4.46
    y_s78_i13_j14_k2  rec_s78_edge_13_14_choose_one  1
    y_s78_i13_j14_k2  budget_K  -6.04
    y_s78_i14_j12_k0  rec_s78_edge_14_12_choose_one  1
    y_s78_i14_j12_k0  budget_K  -6.09
    y_s78_i14_j12_k1  rec_s78_edge_14_12_choose_one  1
    y_s78_i14_j12_k1  budget_K  -3.21
    y_s78_i14_j12_k2  rec_s78_edge_14_12_choose_one  1
    y_s78_i14_j12_k2  budget_K  -4.3100000000000005e+00
    y_s78_i15_j13_k0  rec_s78_edge_15_13_choose_one  1
    y_s78_i15_j13_k0  budget_K  -12.08
    y_s78_i15_j13_k1  rec_s78_edge_15_13_choose_one  1
    y_s78_i15_j13_k1  budget_K  -9.72
    y_s78_i15_j13_k2  rec_s78_edge_15_13_choose_one  1
    y_s78_i15_j13_k2  budget_K  -2.0300000000000002e+00
    y_s78_i16_j17_k0  rec_s78_edge_16_17_choose_one  1
    y_s78_i16_j17_k0  budget_K  1.1
    y_s78_i16_j17_k1  rec_s78_edge_16_17_choose_one  1
    y_s78_i16_j17_k1  budget_K  15.11
    y_s78_i16_j17_k2  rec_s78_edge_16_17_choose_one  1
    y_s78_i16_j17_k2  budget_K  -6.92
    y_s78_i17_j38_k0  rec_s78_edge_17_38_choose_one  1
    y_s78_i17_j38_k0  budget_K  -5.5200000000000005e+00
    y_s78_i17_j38_k1  rec_s78_edge_17_38_choose_one  1
    y_s78_i17_j38_k1  budget_K  -2.75
    y_s78_i17_j38_k2  rec_s78_edge_17_38_choose_one  1
    y_s78_i17_j38_k2  budget_K  3.35
    y_s78_i18_j20_k0  rec_s78_edge_18_20_choose_one  1
    y_s78_i18_j20_k0  budget_K  -2.48
    y_s78_i18_j20_k1  rec_s78_edge_18_20_choose_one  1
    y_s78_i18_j20_k1  budget_K  -1.17
    y_s78_i18_j20_k2  rec_s78_edge_18_20_choose_one  1
    y_s78_i18_j20_k2  budget_K  -2.81
    y_s78_i19_j45_k0  rec_s78_edge_19_45_choose_one  1
    y_s78_i19_j45_k0  budget_K  -2.09
    y_s78_i19_j45_k1  rec_s78_edge_19_45_choose_one  1
    y_s78_i19_j45_k1  budget_K  0.72
    y_s78_i19_j45_k2  rec_s78_edge_19_45_choose_one  1
    y_s78_i19_j45_k2  budget_K  -1.51
    y_s78_i20_j16_k0  rec_s78_edge_20_16_choose_one  1
    y_s78_i20_j16_k0  budget_K  -1.1370000000000001e+01
    y_s78_i20_j16_k1  rec_s78_edge_20_16_choose_one  1
    y_s78_i20_j16_k1  budget_K  -9.21
    y_s78_i20_j16_k2  rec_s78_edge_20_16_choose_one  1
    y_s78_i20_j16_k2  budget_K  -10.78
    y_s78_i21_j24_k0  rec_s78_edge_21_24_choose_one  1
    y_s78_i21_j24_k0  budget_K  -3.87
    y_s78_i21_j24_k1  rec_s78_edge_21_24_choose_one  1
    y_s78_i21_j24_k1  budget_K  -0.49
    y_s78_i21_j24_k2  rec_s78_edge_21_24_choose_one  1
    y_s78_i21_j24_k2  budget_K  0.51
    y_s78_i22_j21_k0  rec_s78_edge_22_21_choose_one  1
    y_s78_i22_j21_k0  budget_K  -2.42
    y_s78_i22_j21_k1  rec_s78_edge_22_21_choose_one  1
    y_s78_i22_j21_k1  budget_K  -1.02
    y_s78_i22_j21_k2  rec_s78_edge_22_21_choose_one  1
    y_s78_i22_j21_k2  budget_K  -4.9
    y_s78_i23_j46_k0  rec_s78_edge_23_46_choose_one  1
    y_s78_i23_j46_k0  budget_K  -6.9
    y_s78_i23_j46_k1  rec_s78_edge_23_46_choose_one  1
    y_s78_i23_j46_k1  budget_K  -9.83
    y_s78_i23_j46_k2  rec_s78_edge_23_46_choose_one  1
    y_s78_i23_j46_k2  budget_K  -1.2530000000000001e+01
    y_s78_i24_j23_k0  rec_s78_edge_24_23_choose_one  1
    y_s78_i24_j23_k0  budget_K  0.09
    y_s78_i24_j23_k1  rec_s78_edge_24_23_choose_one  1
    y_s78_i24_j23_k1  budget_K  -2.7
    y_s78_i24_j23_k2  rec_s78_edge_24_23_choose_one  1
    y_s78_i24_j23_k2  budget_K  3.2600000000000002e+00
    y_s78_i25_j31_k0  rec_s78_edge_25_31_choose_one  1
    y_s78_i25_j31_k0  budget_K  -4.2700000000000005e+00
    y_s78_i25_j31_k1  rec_s78_edge_25_31_choose_one  1
    y_s78_i25_j31_k1  budget_K  4.53
    y_s78_i25_j31_k2  rec_s78_edge_25_31_choose_one  1
    y_s78_i25_j31_k2  budget_K  -4.4
    y_s78_i26_j27_k0  rec_s78_edge_26_27_choose_one  1
    y_s78_i26_j27_k0  budget_K  5.33
    y_s78_i26_j27_k1  rec_s78_edge_26_27_choose_one  1
    y_s78_i26_j27_k1  budget_K  -1.28
    y_s78_i26_j27_k2  rec_s78_edge_26_27_choose_one  1
    y_s78_i26_j27_k2  budget_K  -3.99
    y_s78_i27_j28_k0  rec_s78_edge_27_28_choose_one  1
    y_s78_i27_j28_k0  budget_K  3.23
    y_s78_i27_j28_k1  rec_s78_edge_27_28_choose_one  1
    y_s78_i27_j28_k1  budget_K  11
    y_s78_i27_j28_k2  rec_s78_edge_27_28_choose_one  1
    y_s78_i27_j28_k2  budget_K  10.21
    y_s78_i28_j25_k0  rec_s78_edge_28_25_choose_one  1
    y_s78_i28_j25_k0  budget_K  -3.96
    y_s78_i28_j25_k1  rec_s78_edge_28_25_choose_one  1
    y_s78_i28_j25_k1  budget_K  8.2900000000000009e+00
    y_s78_i28_j25_k2  rec_s78_edge_28_25_choose_one  1
    y_s78_i28_j25_k2  budget_K  -5.22
    y_s78_i29_j7_k0  rec_s78_edge_29_7_choose_one  1
    y_s78_i29_j7_k0  budget_K  -8.08
    y_s78_i29_j7_k1  rec_s78_edge_29_7_choose_one  1
    y_s78_i29_j7_k1  budget_K  -8.5
    y_s78_i29_j7_k2  rec_s78_edge_29_7_choose_one  1
    y_s78_i29_j7_k2  budget_K  -7.61
    y_s78_i30_j29_k0  rec_s78_edge_30_29_choose_one  1
    y_s78_i30_j29_k0  budget_K  -2.9
    y_s78_i30_j29_k1  rec_s78_edge_30_29_choose_one  1
    y_s78_i30_j29_k1  budget_K  -1.6400000000000001e+00
    y_s78_i30_j29_k2  rec_s78_edge_30_29_choose_one  1
    y_s78_i30_j29_k2  budget_K  -3
    y_s78_i31_j30_k0  rec_s78_edge_31_30_choose_one  1
    y_s78_i31_j30_k0  budget_K  -3.24
    y_s78_i31_j30_k1  rec_s78_edge_31_30_choose_one  1
    y_s78_i31_j30_k1  budget_K  -3.0300000000000002e+00
    y_s78_i31_j30_k2  rec_s78_edge_31_30_choose_one  1
    y_s78_i31_j30_k2  budget_K  -2.07
    y_s78_i32_j40_k0  rec_s78_edge_32_40_choose_one  1
    y_s78_i32_j40_k0  budget_K  -20.64
    y_s78_i32_j40_k1  rec_s78_edge_32_40_choose_one  1
    y_s78_i32_j40_k1  budget_K  -27.48
    y_s78_i32_j40_k2  rec_s78_edge_32_40_choose_one  1
    y_s78_i32_j40_k2  budget_K  13.22
    y_s78_i33_j35_k0  rec_s78_edge_33_35_choose_one  1
    y_s78_i33_j35_k0  budget_K  -6.11
    y_s78_i33_j35_k1  rec_s78_edge_33_35_choose_one  1
    y_s78_i33_j35_k1  budget_K  15.64
    y_s78_i33_j35_k2  rec_s78_edge_33_35_choose_one  1
    y_s78_i33_j35_k2  budget_K  -4.8
    y_s78_i34_j33_k0  rec_s78_edge_34_33_choose_one  1
    y_s78_i34_j33_k0  budget_K  -6.3900000000000006e+00
    y_s78_i34_j33_k1  rec_s78_edge_34_33_choose_one  1
    y_s78_i34_j33_k1  budget_K  -7.74
    y_s78_i34_j33_k2  rec_s78_edge_34_33_choose_one  1
    y_s78_i34_j33_k2  budget_K  -5.84
    y_s78_i35_j32_k0  rec_s78_edge_35_32_choose_one  1
    y_s78_i35_j32_k0  budget_K  -11.51
    y_s78_i35_j32_k1  rec_s78_edge_35_32_choose_one  1
    y_s78_i35_j32_k1  budget_K  27.16
    y_s78_i35_j32_k2  rec_s78_edge_35_32_choose_one  1
    y_s78_i35_j32_k2  budget_K  -12.65
    y_s78_i36_j49_k0  rec_s78_edge_36_49_choose_one  1
    y_s78_i36_j49_k0  budget_K  -1.9100000000000001e+00
    y_s78_i36_j49_k1  rec_s78_edge_36_49_choose_one  1
    y_s78_i36_j49_k1  budget_K  -1.46
    y_s78_i36_j49_k2  rec_s78_edge_36_49_choose_one  1
    y_s78_i36_j49_k2  budget_K  -0.23
    y_s78_i37_j39_k0  rec_s78_edge_37_39_choose_one  1
    y_s78_i37_j39_k0  budget_K  -24.75
    y_s78_i37_j39_k1  rec_s78_edge_37_39_choose_one  1
    y_s78_i37_j39_k1  budget_K  -7.8500000000000005e+00
    y_s78_i37_j39_k2  rec_s78_edge_37_39_choose_one  1
    y_s78_i37_j39_k2  budget_K  2.6028000000000003e+02
    y_s78_i38_j15_k0  rec_s78_edge_38_15_choose_one  1
    y_s78_i38_j15_k0  budget_K  -4.22
    y_s78_i38_j15_k1  rec_s78_edge_38_15_choose_one  1
    y_s78_i38_j15_k1  budget_K  -4.25
    y_s78_i38_j15_k2  rec_s78_edge_38_15_choose_one  1
    y_s78_i38_j15_k2  budget_K  -3.9
    y_s78_i39_j53_k0  rec_s78_edge_39_53_choose_one  1
    y_s78_i39_j53_k0  budget_K  -4.7700000000000005e+00
    y_s78_i39_j53_k1  rec_s78_edge_39_53_choose_one  1
    y_s78_i39_j53_k1  budget_K  -2.06
    y_s78_i39_j53_k2  rec_s78_edge_39_53_choose_one  1
    y_s78_i39_j53_k2  budget_K  -23.17
    y_s78_i40_j37_k0  rec_s78_edge_40_37_choose_one  1
    y_s78_i40_j37_k0  budget_K  -31.98
    y_s78_i40_j37_k1  rec_s78_edge_40_37_choose_one  1
    y_s78_i40_j37_k1  budget_K  103.03
    y_s78_i40_j37_k2  rec_s78_edge_40_37_choose_one  1
    y_s78_i40_j37_k2  budget_K  -24.28
    y_s78_i41_j4_k0  rec_s78_edge_41_4_choose_one  1
    y_s78_i41_j4_k0  budget_K  -4.83
    y_s78_i41_j4_k1  rec_s78_edge_41_4_choose_one  1
    y_s78_i41_j4_k1  budget_K  -0.11
    y_s78_i41_j4_k2  rec_s78_edge_41_4_choose_one  1
    y_s78_i41_j4_k2  budget_K  6.37
    y_s78_i42_j44_k0  rec_s78_edge_42_44_choose_one  1
    y_s78_i42_j44_k0  budget_K  8.65
    y_s78_i42_j44_k1  rec_s78_edge_42_44_choose_one  1
    y_s78_i42_j44_k1  budget_K  47.36
    y_s78_i42_j44_k2  rec_s78_edge_42_44_choose_one  1
    y_s78_i42_j44_k2  budget_K  -5.64
    y_s78_i43_j19_k0  rec_s78_edge_43_19_choose_one  1
    y_s78_i43_j19_k0  budget_K  -17.45
    y_s78_i43_j19_k1  rec_s78_edge_43_19_choose_one  1
    y_s78_i43_j19_k1  budget_K  -17.07
    y_s78_i43_j19_k2  rec_s78_edge_43_19_choose_one  1
    y_s78_i43_j19_k2  budget_K  -9.85
    y_s78_i44_j50_k0  rec_s78_edge_44_50_choose_one  1
    y_s78_i44_j50_k0  budget_K  -18.93
    y_s78_i44_j50_k1  rec_s78_edge_44_50_choose_one  1
    y_s78_i44_j50_k1  budget_K  -27.01
    y_s78_i44_j50_k2  rec_s78_edge_44_50_choose_one  1
    y_s78_i44_j50_k2  budget_K  -31.14
    y_s78_i45_j18_k0  rec_s78_edge_45_18_choose_one  1
    y_s78_i45_j18_k0  budget_K  -7.3900000000000006e+00
    y_s78_i45_j18_k1  rec_s78_edge_45_18_choose_one  1
    y_s78_i45_j18_k1  budget_K  -8.4
    y_s78_i45_j18_k2  rec_s78_edge_45_18_choose_one  1
    y_s78_i45_j18_k2  budget_K  -9.4
    y_s78_i46_j42_k0  rec_s78_edge_46_42_choose_one  1
    y_s78_i46_j42_k0  budget_K  -8.74
    y_s78_i46_j42_k1  rec_s78_edge_46_42_choose_one  1
    y_s78_i46_j42_k1  budget_K  -10.4
    y_s78_i46_j42_k2  rec_s78_edge_46_42_choose_one  1
    y_s78_i46_j42_k2  budget_K  -4.82
    y_s78_i47_j41_k0  rec_s78_edge_47_41_choose_one  1
    y_s78_i47_j41_k0  budget_K  -5.44
    y_s78_i47_j41_k1  rec_s78_edge_47_41_choose_one  1
    y_s78_i47_j41_k1  budget_K  -10.94
    y_s78_i47_j41_k2  rec_s78_edge_47_41_choose_one  1
    y_s78_i47_j41_k2  budget_K  -5.4
    y_s78_i48_j51_k0  rec_s78_edge_48_51_choose_one  1
    y_s78_i48_j51_k0  budget_K  -7.29
    y_s78_i48_j51_k1  rec_s78_edge_48_51_choose_one  1
    y_s78_i48_j51_k1  budget_K  20.25
    y_s78_i48_j51_k2  rec_s78_edge_48_51_choose_one  1
    y_s78_i48_j51_k2  budget_K  6.3900000000000006e+00
    y_s78_i49_j26_k0  rec_s78_edge_49_26_choose_one  1
    y_s78_i49_j26_k0  budget_K  -3.2600000000000002e+00
    y_s78_i49_j26_k1  rec_s78_edge_49_26_choose_one  1
    y_s78_i49_j26_k1  budget_K  -5.16
    y_s78_i49_j26_k2  rec_s78_edge_49_26_choose_one  1
    y_s78_i49_j26_k2  budget_K  -2.42
    y_s78_i50_j48_k0  rec_s78_edge_50_48_choose_one  1
    y_s78_i50_j48_k0  budget_K  -8.35
    y_s78_i50_j48_k1  rec_s78_edge_50_48_choose_one  1
    y_s78_i50_j48_k1  budget_K  2.89
    y_s78_i50_j48_k2  rec_s78_edge_50_48_choose_one  1
    y_s78_i50_j48_k2  budget_K  -9.86
    y_s78_i51_j36_k0  rec_s78_edge_51_36_choose_one  1
    y_s78_i51_j36_k0  budget_K  -10.67
    y_s78_i51_j36_k1  rec_s78_edge_51_36_choose_one  1
    y_s78_i51_j36_k1  budget_K  -11.3
    y_s78_i51_j36_k2  rec_s78_edge_51_36_choose_one  1
    y_s78_i51_j36_k2  budget_K  -7.33
    y_s78_i52_j47_k0  rec_s78_edge_52_47_choose_one  1
    y_s78_i52_j47_k0  budget_K  -6.6400000000000006e+00
    y_s78_i52_j47_k1  rec_s78_edge_52_47_choose_one  1
    y_s78_i52_j47_k1  budget_K  -7.75
    y_s78_i52_j47_k2  rec_s78_edge_52_47_choose_one  1
    y_s78_i52_j47_k2  budget_K  -8.35
    y_s78_i53_j43_k0  rec_s78_edge_53_43_choose_one  1
    y_s78_i53_j43_k0  budget_K  -1.62
    y_s78_i53_j43_k1  rec_s78_edge_53_43_choose_one  1
    y_s78_i53_j43_k1  budget_K  -4.34
    y_s78_i53_j43_k2  rec_s78_edge_53_43_choose_one  1
    y_s78_i53_j43_k2  budget_K  1.58
    y_s96_i0_j2_k0  rec_s96_edge_0_2_choose_one  1
    y_s96_i0_j2_k0  budget_K  -1.02
    y_s96_i0_j2_k1  rec_s96_edge_0_2_choose_one  1
    y_s96_i0_j2_k1  budget_K  2.61
    y_s96_i0_j2_k2  rec_s96_edge_0_2_choose_one  1
    y_s96_i0_j2_k2  budget_K  -0.81
    y_s96_i1_j22_k0  rec_s96_edge_1_22_choose_one  1
    y_s96_i1_j22_k0  budget_K  98.79
    y_s96_i1_j22_k1  rec_s96_edge_1_22_choose_one  1
    y_s96_i1_j22_k1  budget_K  -5.88
    y_s96_i1_j22_k2  rec_s96_edge_1_22_choose_one  1
    y_s96_i1_j22_k2  budget_K  -5.13
    y_s96_i2_j1_k0  rec_s96_edge_2_1_choose_one  1
    y_s96_i2_j1_k0  budget_K  2.5100000000000002e+00
    y_s96_i2_j1_k1  rec_s96_edge_2_1_choose_one  1
    y_s96_i2_j1_k1  budget_K  -1.19
    y_s96_i2_j1_k2  rec_s96_edge_2_1_choose_one  1
    y_s96_i2_j1_k2  budget_K  -0.85
    y_s96_i3_j9_k0  rec_s96_edge_3_9_choose_one  1
    y_s96_i3_j9_k0  budget_K  -3.2800000000000002e+00
    y_s96_i3_j9_k1  rec_s96_edge_3_9_choose_one  1
    y_s96_i3_j9_k1  budget_K  4.29
    y_s96_i3_j9_k2  rec_s96_edge_3_9_choose_one  1
    y_s96_i3_j9_k2  budget_K  -7.82
    y_s96_i4_j34_k0  rec_s96_edge_4_34_choose_one  1
    y_s96_i4_j34_k0  budget_K  8.34
    y_s96_i4_j34_k1  rec_s96_edge_4_34_choose_one  1
    y_s96_i4_j34_k1  budget_K  -13.82
    y_s96_i4_j34_k2  rec_s96_edge_4_34_choose_one  1
    y_s96_i4_j34_k2  budget_K  63.22
    y_s96_i5_j0_k0  rec_s96_edge_5_0_choose_one  1
    y_s96_i5_j0_k0  budget_K  -3.4
    y_s96_i5_j0_k1  rec_s96_edge_5_0_choose_one  1
    y_s96_i5_j0_k1  budget_K  5.91
    y_s96_i5_j0_k2  rec_s96_edge_5_0_choose_one  1
    y_s96_i5_j0_k2  budget_K  -2.32
    y_s96_i6_j52_k0  rec_s96_edge_6_52_choose_one  1
    y_s96_i6_j52_k0  budget_K  -10.48
    y_s96_i6_j52_k1  rec_s96_edge_6_52_choose_one  1
    y_s96_i6_j52_k1  budget_K  6.76
    y_s96_i6_j52_k2  rec_s96_edge_6_52_choose_one  1
    y_s96_i6_j52_k2  budget_K  -10.07
    y_s96_i7_j3_k0  rec_s96_edge_7_3_choose_one  1
    y_s96_i7_j3_k0  budget_K  -1.2
    y_s96_i7_j3_k1  rec_s96_edge_7_3_choose_one  1
    y_s96_i7_j3_k1  budget_K  -2.22
    y_s96_i7_j3_k2  rec_s96_edge_7_3_choose_one  1
    y_s96_i7_j3_k2  budget_K  -3.5
    y_s96_i8_j10_k0  rec_s96_edge_8_10_choose_one  1
    y_s96_i8_j10_k0  budget_K  -4.58
    y_s96_i8_j10_k1  rec_s96_edge_8_10_choose_one  1
    y_s96_i8_j10_k1  budget_K  -3.7
    y_s96_i8_j10_k2  rec_s96_edge_8_10_choose_one  1
    y_s96_i8_j10_k2  budget_K  -4.54
    y_s96_i9_j6_k0  rec_s96_edge_9_6_choose_one  1
    y_s96_i9_j6_k0  budget_K  -8.63
    y_s96_i9_j6_k1  rec_s96_edge_9_6_choose_one  1
    y_s96_i9_j6_k1  budget_K  -3.19
    y_s96_i9_j6_k2  rec_s96_edge_9_6_choose_one  1
    y_s96_i9_j6_k2  budget_K  -8.22
    y_s96_i10_j5_k0  rec_s96_edge_10_5_choose_one  1
    y_s96_i10_j5_k0  budget_K  0.63
    y_s96_i10_j5_k1  rec_s96_edge_10_5_choose_one  1
    y_s96_i10_j5_k1  budget_K  -3.66
    y_s96_i10_j5_k2  rec_s96_edge_10_5_choose_one  1
    y_s96_i10_j5_k2  budget_K  -1.86
    y_s96_i11_j8_k0  rec_s96_edge_11_8_choose_one  1
    y_s96_i11_j8_k0  budget_K  -3.99
    y_s96_i11_j8_k1  rec_s96_edge_11_8_choose_one  1
    y_s96_i11_j8_k1  budget_K  2.5500000000000003e+00
    y_s96_i11_j8_k2  rec_s96_edge_11_8_choose_one  1
    y_s96_i11_j8_k2  budget_K  -3.7800000000000002e+00
    y_s96_i12_j11_k0  rec_s96_edge_12_11_choose_one  1
    y_s96_i12_j11_k0  budget_K  -8.2000000000000006e-01
    y_s96_i12_j11_k1  rec_s96_edge_12_11_choose_one  1
    y_s96_i12_j11_k1  budget_K  -2.04
    y_s96_i12_j11_k2  rec_s96_edge_12_11_choose_one  1
    y_s96_i12_j11_k2  budget_K  3.2600000000000002e+00
    y_s96_i13_j14_k0  rec_s96_edge_13_14_choose_one  1
    y_s96_i13_j14_k0  budget_K  -0.27
    y_s96_i13_j14_k1  rec_s96_edge_13_14_choose_one  1
    y_s96_i13_j14_k1  budget_K  21.06
    y_s96_i13_j14_k2  rec_s96_edge_13_14_choose_one  1
    y_s96_i13_j14_k2  budget_K  5.87
    y_s96_i14_j12_k0  rec_s96_edge_14_12_choose_one  1
    y_s96_i14_j12_k0  budget_K  -9.9
    y_s96_i14_j12_k1  rec_s96_edge_14_12_choose_one  1
    y_s96_i14_j12_k1  budget_K  -5.14
    y_s96_i14_j12_k2  rec_s96_edge_14_12_choose_one  1
    y_s96_i14_j12_k2  budget_K  -9.3700000000000010e+00
    y_s96_i15_j13_k0  rec_s96_edge_15_13_choose_one  1
    y_s96_i15_j13_k0  budget_K  -11.49
    y_s96_i15_j13_k1  rec_s96_edge_15_13_choose_one  1
    y_s96_i15_j13_k1  budget_K  49.78
    y_s96_i15_j13_k2  rec_s96_edge_15_13_choose_one  1
    y_s96_i15_j13_k2  budget_K  -10.65
    y_s96_i16_j17_k0  rec_s96_edge_16_17_choose_one  1
    y_s96_i16_j17_k0  budget_K  0.34
    y_s96_i16_j17_k1  rec_s96_edge_16_17_choose_one  1
    y_s96_i16_j17_k1  budget_K  159.06
    y_s96_i16_j17_k2  rec_s96_edge_16_17_choose_one  1
    y_s96_i16_j17_k2  budget_K  -5.98
    y_s96_i17_j38_k0  rec_s96_edge_17_38_choose_one  1
    y_s96_i17_j38_k0  budget_K  -4.24
    y_s96_i17_j38_k1  rec_s96_edge_17_38_choose_one  1
    y_s96_i17_j38_k1  budget_K  -1.71
    y_s96_i17_j38_k2  rec_s96_edge_17_38_choose_one  1
    y_s96_i17_j38_k2  budget_K  -0.64
    y_s96_i18_j20_k0  rec_s96_edge_18_20_choose_one  1
    y_s96_i18_j20_k0  budget_K  -2.89
    y_s96_i18_j20_k1  rec_s96_edge_18_20_choose_one  1
    y_s96_i18_j20_k1  budget_K  -0.56
    y_s96_i18_j20_k2  rec_s96_edge_18_20_choose_one  1
    y_s96_i18_j20_k2  budget_K  -2.92
    y_s96_i19_j45_k0  rec_s96_edge_19_45_choose_one  1
    y_s96_i19_j45_k0  budget_K  12
    y_s96_i19_j45_k1  rec_s96_edge_19_45_choose_one  1
    y_s96_i19_j45_k1  budget_K  -0.93
    y_s96_i19_j45_k2  rec_s96_edge_19_45_choose_one  1
    y_s96_i19_j45_k2  budget_K  -0.08
    y_s96_i20_j16_k0  rec_s96_edge_20_16_choose_one  1
    y_s96_i20_j16_k0  budget_K  -6.5
    y_s96_i20_j16_k1  rec_s96_edge_20_16_choose_one  1
    y_s96_i20_j16_k1  budget_K  12.18
    y_s96_i20_j16_k2  rec_s96_edge_20_16_choose_one  1
    y_s96_i20_j16_k2  budget_K  -13.49
    y_s96_i21_j24_k0  rec_s96_edge_21_24_choose_one  1
    y_s96_i21_j24_k0  budget_K  -2.56
    y_s96_i21_j24_k1  rec_s96_edge_21_24_choose_one  1
    y_s96_i21_j24_k1  budget_K  -3.08
    y_s96_i21_j24_k2  rec_s96_edge_21_24_choose_one  1
    y_s96_i21_j24_k2  budget_K  46.96
    y_s96_i22_j21_k0  rec_s96_edge_22_21_choose_one  1
    y_s96_i22_j21_k0  budget_K  -3.5500000000000003e+00
    y_s96_i22_j21_k1  rec_s96_edge_22_21_choose_one  1
    y_s96_i22_j21_k1  budget_K  -1.16
    y_s96_i22_j21_k2  rec_s96_edge_22_21_choose_one  1
    y_s96_i22_j21_k2  budget_K  23.18
    y_s96_i23_j46_k0  rec_s96_edge_23_46_choose_one  1
    y_s96_i23_j46_k0  budget_K  -7.3
    y_s96_i23_j46_k1  rec_s96_edge_23_46_choose_one  1
    y_s96_i23_j46_k1  budget_K  -7.7700000000000005e+00
    y_s96_i23_j46_k2  rec_s96_edge_23_46_choose_one  1
    y_s96_i23_j46_k2  budget_K  -11.25
    y_s96_i24_j23_k0  rec_s96_edge_24_23_choose_one  1
    y_s96_i24_j23_k0  budget_K  3.06
    y_s96_i24_j23_k1  rec_s96_edge_24_23_choose_one  1
    y_s96_i24_j23_k1  budget_K  -3.04
    y_s96_i24_j23_k2  rec_s96_edge_24_23_choose_one  1
    y_s96_i24_j23_k2  budget_K  -2.9
    y_s96_i25_j31_k0  rec_s96_edge_25_31_choose_one  1
    y_s96_i25_j31_k0  budget_K  -4.89
    y_s96_i25_j31_k1  rec_s96_edge_25_31_choose_one  1
    y_s96_i25_j31_k1  budget_K  21.96
    y_s96_i25_j31_k2  rec_s96_edge_25_31_choose_one  1
    y_s96_i25_j31_k2  budget_K  5.07
    y_s96_i26_j27_k0  rec_s96_edge_26_27_choose_one  1
    y_s96_i26_j27_k0  budget_K  -4.33
    y_s96_i26_j27_k1  rec_s96_edge_26_27_choose_one  1
    y_s96_i26_j27_k1  budget_K  -3.22
    y_s96_i26_j27_k2  rec_s96_edge_26_27_choose_one  1
    y_s96_i26_j27_k2  budget_K  -0.03
    y_s96_i27_j28_k0  rec_s96_edge_27_28_choose_one  1
    y_s96_i27_j28_k0  budget_K  5.75
    y_s96_i27_j28_k1  rec_s96_edge_27_28_choose_one  1
    y_s96_i27_j28_k1  budget_K  -3.75
    y_s96_i27_j28_k2  rec_s96_edge_27_28_choose_one  1
    y_s96_i27_j28_k2  budget_K  -7.96
    y_s96_i28_j25_k0  rec_s96_edge_28_25_choose_one  1
    y_s96_i28_j25_k0  budget_K  0.14
    y_s96_i28_j25_k1  rec_s96_edge_28_25_choose_one  1
    y_s96_i28_j25_k1  budget_K  -6.8100000000000005e+00
    y_s96_i28_j25_k2  rec_s96_edge_28_25_choose_one  1
    y_s96_i28_j25_k2  budget_K  -4.2700000000000005e+00
    y_s96_i29_j7_k0  rec_s96_edge_29_7_choose_one  1
    y_s96_i29_j7_k0  budget_K  -6.03
    y_s96_i29_j7_k1  rec_s96_edge_29_7_choose_one  1
    y_s96_i29_j7_k1  budget_K  -7.84
    y_s96_i29_j7_k2  rec_s96_edge_29_7_choose_one  1
    y_s96_i29_j7_k2  budget_K  -4.46
    y_s96_i30_j29_k0  rec_s96_edge_30_29_choose_one  1
    y_s96_i30_j29_k0  budget_K  -3.35
    y_s96_i30_j29_k1  rec_s96_edge_30_29_choose_one  1
    y_s96_i30_j29_k1  budget_K  -2.47
    y_s96_i30_j29_k2  rec_s96_edge_30_29_choose_one  1
    y_s96_i30_j29_k2  budget_K  12.47
    y_s96_i31_j30_k0  rec_s96_edge_31_30_choose_one  1
    y_s96_i31_j30_k0  budget_K  13.55
    y_s96_i31_j30_k1  rec_s96_edge_31_30_choose_one  1
    y_s96_i31_j30_k1  budget_K  -1.47
    y_s96_i31_j30_k2  rec_s96_edge_31_30_choose_one  1
    y_s96_i31_j30_k2  budget_K  -0.5
    y_s96_i32_j40_k0  rec_s96_edge_32_40_choose_one  1
    y_s96_i32_j40_k0  budget_K  -2.7810000000000002e+01
    y_s96_i32_j40_k1  rec_s96_edge_32_40_choose_one  1
    y_s96_i32_j40_k1  budget_K  38.21
    y_s96_i32_j40_k2  rec_s96_edge_32_40_choose_one  1
    y_s96_i32_j40_k2  budget_K  -2.1490000000000002e+01
    y_s96_i33_j35_k0  rec_s96_edge_33_35_choose_one  1
    y_s96_i33_j35_k0  budget_K  -5.25
    y_s96_i33_j35_k1  rec_s96_edge_33_35_choose_one  1
    y_s96_i33_j35_k1  budget_K  -4.34
    y_s96_i33_j35_k2  rec_s96_edge_33_35_choose_one  1
    y_s96_i33_j35_k2  budget_K  -5.16
    y_s96_i34_j33_k0  rec_s96_edge_34_33_choose_one  1
    y_s96_i34_j33_k0  budget_K  -11.1
    y_s96_i34_j33_k1  rec_s96_edge_34_33_choose_one  1
    y_s96_i34_j33_k1  budget_K  -12.55
    y_s96_i34_j33_k2  rec_s96_edge_34_33_choose_one  1
    y_s96_i34_j33_k2  budget_K  -11.94
    y_s96_i35_j32_k0  rec_s96_edge_35_32_choose_one  1
    y_s96_i35_j32_k0  budget_K  -7.88
    y_s96_i35_j32_k1  rec_s96_edge_35_32_choose_one  1
    y_s96_i35_j32_k1  budget_K  -9.78
    y_s96_i35_j32_k2  rec_s96_edge_35_32_choose_one  1
    y_s96_i35_j32_k2  budget_K  -12.21
    y_s96_i36_j49_k0  rec_s96_edge_36_49_choose_one  1
    y_s96_i36_j49_k1  rec_s96_edge_36_49_choose_one  1
    y_s96_i36_j49_k1  budget_K  -2.33
    y_s96_i36_j49_k2  rec_s96_edge_36_49_choose_one  1
    y_s96_i36_j49_k2  budget_K  -2.41
    y_s96_i37_j39_k0  rec_s96_edge_37_39_choose_one  1
    y_s96_i37_j39_k0  budget_K  -34.05
    y_s96_i37_j39_k1  rec_s96_edge_37_39_choose_one  1
    y_s96_i37_j39_k1  budget_K  10.58
    y_s96_i37_j39_k2  rec_s96_edge_37_39_choose_one  1
    y_s96_i37_j39_k2  budget_K  -37.38
    y_s96_i38_j15_k0  rec_s96_edge_38_15_choose_one  1
    y_s96_i38_j15_k0  budget_K  -6.15
    y_s96_i38_j15_k1  rec_s96_edge_38_15_choose_one  1
    y_s96_i38_j15_k1  budget_K  3.23
    y_s96_i38_j15_k2  rec_s96_edge_38_15_choose_one  1
    y_s96_i38_j15_k2  budget_K  -3.93
    y_s96_i39_j53_k0  rec_s96_edge_39_53_choose_one  1
    y_s96_i39_j53_k0  budget_K  -19.8
    y_s96_i39_j53_k1  rec_s96_edge_39_53_choose_one  1
    y_s96_i39_j53_k1  budget_K  -27.95
    y_s96_i39_j53_k2  rec_s96_edge_39_53_choose_one  1
    y_s96_i39_j53_k2  budget_K  -2.5240000000000002e+01
    y_s96_i40_j37_k0  rec_s96_edge_40_37_choose_one  1
    y_s96_i40_j37_k0  budget_K  -30.37
    y_s96_i40_j37_k1  rec_s96_edge_40_37_choose_one  1
    y_s96_i40_j37_k1  budget_K  -6.4
    y_s96_i40_j37_k2  rec_s96_edge_40_37_choose_one  1
    y_s96_i40_j37_k2  budget_K  15.93
    y_s96_i41_j4_k0  rec_s96_edge_41_4_choose_one  1
    y_s96_i41_j4_k0  budget_K  -4.34
    y_s96_i41_j4_k1  rec_s96_edge_41_4_choose_one  1
    y_s96_i41_j4_k1  budget_K  -4.78
    y_s96_i41_j4_k2  rec_s96_edge_41_4_choose_one  1
    y_s96_i41_j4_k2  budget_K  -1.82
    y_s96_i42_j44_k0  rec_s96_edge_42_44_choose_one  1
    y_s96_i42_j44_k0  budget_K  8.72
    y_s96_i42_j44_k1  rec_s96_edge_42_44_choose_one  1
    y_s96_i42_j44_k1  budget_K  21.23
    y_s96_i42_j44_k2  rec_s96_edge_42_44_choose_one  1
    y_s96_i42_j44_k2  budget_K  -7.37
    y_s96_i43_j19_k0  rec_s96_edge_43_19_choose_one  1
    y_s96_i43_j19_k0  budget_K  3.87
    y_s96_i43_j19_k1  rec_s96_edge_43_19_choose_one  1
    y_s96_i43_j19_k1  budget_K  28.26
    y_s96_i43_j19_k2  rec_s96_edge_43_19_choose_one  1
    y_s96_i43_j19_k2  budget_K  1.0524000000000001e+02
    y_s96_i44_j50_k0  rec_s96_edge_44_50_choose_one  1
    y_s96_i44_j50_k0  budget_K  -30.53
    y_s96_i44_j50_k1  rec_s96_edge_44_50_choose_one  1
    y_s96_i44_j50_k1  budget_K  -12.66
    y_s96_i44_j50_k2  rec_s96_edge_44_50_choose_one  1
    y_s96_i44_j50_k2  budget_K  -17.43
    y_s96_i45_j18_k0  rec_s96_edge_45_18_choose_one  1
    y_s96_i45_j18_k0  budget_K  11.01
    y_s96_i45_j18_k1  rec_s96_edge_45_18_choose_one  1
    y_s96_i45_j18_k1  budget_K  8.01
    y_s96_i45_j18_k2  rec_s96_edge_45_18_choose_one  1
    y_s96_i45_j18_k2  budget_K  -9.2000000000000011e+00
    y_s96_i46_j42_k0  rec_s96_edge_46_42_choose_one  1
    y_s96_i46_j42_k0  budget_K  -10.42
    y_s96_i46_j42_k1  rec_s96_edge_46_42_choose_one  1
    y_s96_i46_j42_k1  budget_K  74.93
    y_s96_i46_j42_k2  rec_s96_edge_46_42_choose_one  1
    y_s96_i46_j42_k2  budget_K  -6.7
    y_s96_i47_j41_k0  rec_s96_edge_47_41_choose_one  1
    y_s96_i47_j41_k0  budget_K  -0.72
    y_s96_i47_j41_k1  rec_s96_edge_47_41_choose_one  1
    y_s96_i47_j41_k1  budget_K  21.76
    y_s96_i47_j41_k2  rec_s96_edge_47_41_choose_one  1
    y_s96_i47_j41_k2  budget_K  -7.78
    y_s96_i48_j51_k0  rec_s96_edge_48_51_choose_one  1
    y_s96_i48_j51_k0  budget_K  -5.19
    y_s96_i48_j51_k1  rec_s96_edge_48_51_choose_one  1
    y_s96_i48_j51_k1  budget_K  -3.14
    y_s96_i48_j51_k2  rec_s96_edge_48_51_choose_one  1
    y_s96_i48_j51_k2  budget_K  29.11
    y_s96_i49_j26_k0  rec_s96_edge_49_26_choose_one  1
    y_s96_i49_j26_k0  budget_K  -4.17
    y_s96_i49_j26_k1  rec_s96_edge_49_26_choose_one  1
    y_s96_i49_j26_k1  budget_K  3.79
    y_s96_i49_j26_k2  rec_s96_edge_49_26_choose_one  1
    y_s96_i49_j26_k2  budget_K  -3.67
    y_s96_i50_j48_k0  rec_s96_edge_50_48_choose_one  1
    y_s96_i50_j48_k0  budget_K  7.11
    y_s96_i50_j48_k1  rec_s96_edge_50_48_choose_one  1
    y_s96_i50_j48_k1  budget_K  -1.2290000000000001e+01
    y_s96_i50_j48_k2  rec_s96_edge_50_48_choose_one  1
    y_s96_i50_j48_k2  budget_K  -14.33
    y_s96_i51_j36_k0  rec_s96_edge_51_36_choose_one  1
    y_s96_i51_j36_k0  budget_K  7.6000000000000005e+00
    y_s96_i51_j36_k1  rec_s96_edge_51_36_choose_one  1
    y_s96_i51_j36_k1  budget_K  -17.36
    y_s96_i51_j36_k2  rec_s96_edge_51_36_choose_one  1
    y_s96_i51_j36_k2  budget_K  -10.99
    y_s96_i52_j47_k0  rec_s96_edge_52_47_choose_one  1
    y_s96_i52_j47_k0  budget_K  -7.29
    y_s96_i52_j47_k1  rec_s96_edge_52_47_choose_one  1
    y_s96_i52_j47_k1  budget_K  -3.54
    y_s96_i52_j47_k2  rec_s96_edge_52_47_choose_one  1
    y_s96_i52_j47_k2  budget_K  -8.59
    y_s96_i53_j43_k0  rec_s96_edge_53_43_choose_one  1
    y_s96_i53_j43_k0  budget_K  0.04
    y_s96_i53_j43_k1  rec_s96_edge_53_43_choose_one  1
    y_s96_i53_j43_k1  budget_K  11.17
    y_s96_i53_j43_k2  rec_s96_edge_53_43_choose_one  1
    y_s96_i53_j43_k2  budget_K  -4.49
    y_s64_i0_j2_k0  rec_s64_edge_0_2_choose_one  1
    y_s64_i0_j2_k0  budget_K  -0.54
    y_s64_i0_j2_k1  rec_s64_edge_0_2_choose_one  1
    y_s64_i0_j2_k1  budget_K  -0.72
    y_s64_i0_j2_k2  rec_s64_edge_0_2_choose_one  1
    y_s64_i0_j2_k2  budget_K  -0.6
    y_s64_i1_j22_k0  rec_s64_edge_1_22_choose_one  1
    y_s64_i1_j22_k0  budget_K  41.56
    y_s64_i1_j22_k1  rec_s64_edge_1_22_choose_one  1
    y_s64_i1_j22_k1  budget_K  7.7700000000000005e+00
    y_s64_i1_j22_k2  rec_s64_edge_1_22_choose_one  1
    y_s64_i1_j22_k2  budget_K  -4.71
    y_s64_i2_j1_k0  rec_s64_edge_2_1_choose_one  1
    y_s64_i2_j1_k0  budget_K  11.78
    y_s64_i2_j1_k1  rec_s64_edge_2_1_choose_one  1
    y_s64_i2_j1_k1  budget_K  -0.77
    y_s64_i2_j1_k2  rec_s64_edge_2_1_choose_one  1
    y_s64_i2_j1_k2  budget_K  -1.1400000000000001e+00
    y_s64_i3_j9_k0  rec_s64_edge_3_9_choose_one  1
    y_s64_i3_j9_k0  budget_K  -5.3100000000000005e+00
    y_s64_i3_j9_k1  rec_s64_edge_3_9_choose_one  1
    y_s64_i3_j9_k1  budget_K  -10.43
    y_s64_i3_j9_k2  rec_s64_edge_3_9_choose_one  1
    y_s64_i3_j9_k2  budget_K  9.51
    y_s64_i4_j34_k0  rec_s64_edge_4_34_choose_one  1
    y_s64_i4_j34_k0  budget_K  8.73
    y_s64_i4_j34_k1  rec_s64_edge_4_34_choose_one  1
    y_s64_i4_j34_k1  budget_K  -11.05
    y_s64_i4_j34_k2  rec_s64_edge_4_34_choose_one  1
    y_s64_i4_j34_k2  budget_K  -15.56
    y_s64_i5_j0_k0  rec_s64_edge_5_0_choose_one  1
    y_s64_i5_j0_k0  budget_K  -4.16
    y_s64_i5_j0_k1  rec_s64_edge_5_0_choose_one  1
    y_s64_i5_j0_k1  budget_K  14.63
    y_s64_i5_j0_k2  rec_s64_edge_5_0_choose_one  1
    y_s64_i5_j0_k2  budget_K  2.81
    y_s64_i6_j52_k0  rec_s64_edge_6_52_choose_one  1
    y_s64_i6_j52_k0  budget_K  7.73
    y_s64_i6_j52_k1  rec_s64_edge_6_52_choose_one  1
    y_s64_i6_j52_k1  budget_K  -6.8100000000000005e+00
    y_s64_i6_j52_k2  rec_s64_edge_6_52_choose_one  1
    y_s64_i6_j52_k2  budget_K  -3.49
    y_s64_i7_j3_k0  rec_s64_edge_7_3_choose_one  1
    y_s64_i7_j3_k0  budget_K  -1.76
    y_s64_i7_j3_k1  rec_s64_edge_7_3_choose_one  1
    y_s64_i7_j3_k1  budget_K  -1.99
    y_s64_i7_j3_k2  rec_s64_edge_7_3_choose_one  1
    y_s64_i7_j3_k2  budget_K  0.38
    y_s64_i8_j10_k0  rec_s64_edge_8_10_choose_one  1
    y_s64_i8_j10_k0  budget_K  -5.42
    y_s64_i8_j10_k1  rec_s64_edge_8_10_choose_one  1
    y_s64_i8_j10_k1  budget_K  -4.58
    y_s64_i8_j10_k2  rec_s64_edge_8_10_choose_one  1
    y_s64_i8_j10_k2  budget_K  -3.75
    y_s64_i9_j6_k0  rec_s64_edge_9_6_choose_one  1
    y_s64_i9_j6_k0  budget_K  23.92
    y_s64_i9_j6_k1  rec_s64_edge_9_6_choose_one  1
    y_s64_i9_j6_k1  budget_K  56.47
    y_s64_i9_j6_k2  rec_s64_edge_9_6_choose_one  1
    y_s64_i9_j6_k2  budget_K  -6.9
    y_s64_i10_j5_k0  rec_s64_edge_10_5_choose_one  1
    y_s64_i10_j5_k0  budget_K  -5.8100000000000005e+00
    y_s64_i10_j5_k1  rec_s64_edge_10_5_choose_one  1
    y_s64_i10_j5_k1  budget_K  -2.29
    y_s64_i10_j5_k2  rec_s64_edge_10_5_choose_one  1
    y_s64_i10_j5_k2  budget_K  -5.96
    y_s64_i11_j8_k0  rec_s64_edge_11_8_choose_one  1
    y_s64_i11_j8_k0  budget_K  -3.64
    y_s64_i11_j8_k1  rec_s64_edge_11_8_choose_one  1
    y_s64_i11_j8_k1  budget_K  -3.5100000000000002e+00
    y_s64_i11_j8_k2  rec_s64_edge_11_8_choose_one  1
    y_s64_i11_j8_k2  budget_K  -3.98
    y_s64_i12_j11_k0  rec_s64_edge_12_11_choose_one  1
    y_s64_i12_j11_k0  budget_K  -1.26
    y_s64_i12_j11_k1  rec_s64_edge_12_11_choose_one  1
    y_s64_i12_j11_k1  budget_K  -1.8
    y_s64_i12_j11_k2  rec_s64_edge_12_11_choose_one  1
    y_s64_i12_j11_k2  budget_K  18.47
    y_s64_i13_j14_k0  rec_s64_edge_13_14_choose_one  1
    y_s64_i13_j14_k0  budget_K  -0.85
    y_s64_i13_j14_k1  rec_s64_edge_13_14_choose_one  1
    y_s64_i13_j14_k1  budget_K  -4.67
    y_s64_i13_j14_k2  rec_s64_edge_13_14_choose_one  1
    y_s64_i13_j14_k2  budget_K  -1.3
    y_s64_i14_j12_k0  rec_s64_edge_14_12_choose_one  1
    y_s64_i14_j12_k0  budget_K  55.79
    y_s64_i14_j12_k1  rec_s64_edge_14_12_choose_one  1
    y_s64_i14_j12_k1  budget_K  -6.44
    y_s64_i14_j12_k2  rec_s64_edge_14_12_choose_one  1
    y_s64_i14_j12_k2  budget_K  7.0200000000000005e+00
    y_s64_i15_j13_k0  rec_s64_edge_15_13_choose_one  1
    y_s64_i15_j13_k0  budget_K  -12.51
    y_s64_i15_j13_k1  rec_s64_edge_15_13_choose_one  1
    y_s64_i15_j13_k1  budget_K  20.19
    y_s64_i15_j13_k2  rec_s64_edge_15_13_choose_one  1
    y_s64_i15_j13_k2  budget_K  -1.02
    y_s64_i16_j17_k0  rec_s64_edge_16_17_choose_one  1
    y_s64_i16_j17_k0  budget_K  -3.99
    y_s64_i16_j17_k1  rec_s64_edge_16_17_choose_one  1
    y_s64_i16_j17_k1  budget_K  -5.96
    y_s64_i16_j17_k2  rec_s64_edge_16_17_choose_one  1
    y_s64_i16_j17_k2  budget_K  8.48
    y_s64_i17_j38_k0  rec_s64_edge_17_38_choose_one  1
    y_s64_i17_j38_k0  budget_K  -4.47
    y_s64_i17_j38_k1  rec_s64_edge_17_38_choose_one  1
    y_s64_i17_j38_k1  budget_K  -0.12
    y_s64_i17_j38_k2  rec_s64_edge_17_38_choose_one  1
    y_s64_i17_j38_k2  budget_K  -2.56
    y_s64_i18_j20_k0  rec_s64_edge_18_20_choose_one  1
    y_s64_i18_j20_k0  budget_K  -1.42
    y_s64_i18_j20_k1  rec_s64_edge_18_20_choose_one  1
    y_s64_i18_j20_k1  budget_K  36.24
    y_s64_i18_j20_k2  rec_s64_edge_18_20_choose_one  1
    y_s64_i18_j20_k2  budget_K  -1.96
    y_s64_i19_j45_k0  rec_s64_edge_19_45_choose_one  1
    y_s64_i19_j45_k0  budget_K  -1.73
    y_s64_i19_j45_k1  rec_s64_edge_19_45_choose_one  1
    y_s64_i19_j45_k1  budget_K  -0.53
    y_s64_i19_j45_k2  rec_s64_edge_19_45_choose_one  1
    y_s64_i19_j45_k2  budget_K  -2.27
    y_s64_i20_j16_k0  rec_s64_edge_20_16_choose_one  1
    y_s64_i20_j16_k0  budget_K  -1.0200000000000001e+01
    y_s64_i20_j16_k1  rec_s64_edge_20_16_choose_one  1
    y_s64_i20_j16_k1  budget_K  0.89
    y_s64_i20_j16_k2  rec_s64_edge_20_16_choose_one  1
    y_s64_i20_j16_k2  budget_K  -10.08
    y_s64_i21_j24_k0  rec_s64_edge_21_24_choose_one  1
    y_s64_i21_j24_k0  budget_K  -1.98
    y_s64_i21_j24_k1  rec_s64_edge_21_24_choose_one  1
    y_s64_i21_j24_k1  budget_K  -3.13
    y_s64_i21_j24_k2  rec_s64_edge_21_24_choose_one  1
    y_s64_i21_j24_k2  budget_K  -2.92
    y_s64_i22_j21_k0  rec_s64_edge_22_21_choose_one  1
    y_s64_i22_j21_k0  budget_K  5.86
    y_s64_i22_j21_k1  rec_s64_edge_22_21_choose_one  1
    y_s64_i22_j21_k1  budget_K  2.7
    y_s64_i22_j21_k2  rec_s64_edge_22_21_choose_one  1
    y_s64_i22_j21_k2  budget_K  4.94
    y_s64_i23_j46_k0  rec_s64_edge_23_46_choose_one  1
    y_s64_i23_j46_k0  budget_K  -7.53
    y_s64_i23_j46_k1  rec_s64_edge_23_46_choose_one  1
    y_s64_i23_j46_k1  budget_K  65.18
    y_s64_i23_j46_k2  rec_s64_edge_23_46_choose_one  1
    y_s64_i23_j46_k2  budget_K  -11.23
    y_s64_i24_j23_k0  rec_s64_edge_24_23_choose_one  1
    y_s64_i24_j23_k0  budget_K  -3.49
    y_s64_i24_j23_k1  rec_s64_edge_24_23_choose_one  1
    y_s64_i24_j23_k1  budget_K  -3.13
    y_s64_i24_j23_k2  rec_s64_edge_24_23_choose_one  1
    y_s64_i24_j23_k2  budget_K  -2.67
    y_s64_i25_j31_k0  rec_s64_edge_25_31_choose_one  1
    y_s64_i25_j31_k0  budget_K  -1.6600000000000001e+00
    y_s64_i25_j31_k1  rec_s64_edge_25_31_choose_one  1
    y_s64_i25_j31_k1  budget_K  -5.78
    y_s64_i25_j31_k2  rec_s64_edge_25_31_choose_one  1
    y_s64_i25_j31_k2  budget_K  -2
    y_s64_i26_j27_k0  rec_s64_edge_26_27_choose_one  1
    y_s64_i26_j27_k0  budget_K  -0.67
    y_s64_i26_j27_k1  rec_s64_edge_26_27_choose_one  1
    y_s64_i26_j27_k1  budget_K  -2.21
    y_s64_i26_j27_k2  rec_s64_edge_26_27_choose_one  1
    y_s64_i26_j27_k2  budget_K  -2.91
    y_s64_i27_j28_k0  rec_s64_edge_27_28_choose_one  1
    y_s64_i27_j28_k0  budget_K  27.7
    y_s64_i27_j28_k1  rec_s64_edge_27_28_choose_one  1
    y_s64_i27_j28_k1  budget_K  8.58
    y_s64_i27_j28_k2  rec_s64_edge_27_28_choose_one  1
    y_s64_i27_j28_k2  budget_K  5.42
    y_s64_i28_j25_k0  rec_s64_edge_28_25_choose_one  1
    y_s64_i28_j25_k0  budget_K  -4.37
    y_s64_i28_j25_k1  rec_s64_edge_28_25_choose_one  1
    y_s64_i28_j25_k1  budget_K  -3.85
    y_s64_i28_j25_k2  rec_s64_edge_28_25_choose_one  1
    y_s64_i28_j25_k2  budget_K  -5.41
    y_s64_i29_j7_k0  rec_s64_edge_29_7_choose_one  1
    y_s64_i29_j7_k0  budget_K  -8.58
    y_s64_i29_j7_k1  rec_s64_edge_29_7_choose_one  1
    y_s64_i29_j7_k1  budget_K  13.96
    y_s64_i29_j7_k2  rec_s64_edge_29_7_choose_one  1
    y_s64_i29_j7_k2  budget_K  -8.85
    y_s64_i30_j29_k0  rec_s64_edge_30_29_choose_one  1
    y_s64_i30_j29_k0  budget_K  -0.9
    y_s64_i30_j29_k1  rec_s64_edge_30_29_choose_one  1
    y_s64_i30_j29_k1  budget_K  -2.6
    y_s64_i30_j29_k2  rec_s64_edge_30_29_choose_one  1
    y_s64_i30_j29_k2  budget_K  -2.31
    y_s64_i31_j30_k0  rec_s64_edge_31_30_choose_one  1
    y_s64_i31_j30_k0  budget_K  -0.67
    y_s64_i31_j30_k1  rec_s64_edge_31_30_choose_one  1
    y_s64_i31_j30_k1  budget_K  -2.95
    y_s64_i31_j30_k2  rec_s64_edge_31_30_choose_one  1
    y_s64_i31_j30_k2  budget_K  6.0200000000000005e+00
    y_s64_i32_j40_k0  rec_s64_edge_32_40_choose_one  1
    y_s64_i32_j40_k0  budget_K  75.99
    y_s64_i32_j40_k1  rec_s64_edge_32_40_choose_one  1
    y_s64_i32_j40_k1  budget_K  183.82
    y_s64_i32_j40_k2  rec_s64_edge_32_40_choose_one  1
    y_s64_i32_j40_k2  budget_K  -27.69
    y_s64_i33_j35_k0  rec_s64_edge_33_35_choose_one  1
    y_s64_i33_j35_k0  budget_K  5.38
    y_s64_i33_j35_k1  rec_s64_edge_33_35_choose_one  1
    y_s64_i33_j35_k1  budget_K  -6.33
    y_s64_i33_j35_k2  rec_s64_edge_33_35_choose_one  1
    y_s64_i33_j35_k2  budget_K  -1.53
    y_s64_i34_j33_k0  rec_s64_edge_34_33_choose_one  1
    y_s64_i34_j33_k0  budget_K  -14.15
    y_s64_i34_j33_k1  rec_s64_edge_34_33_choose_one  1
    y_s64_i34_j33_k1  budget_K  -14.07
    y_s64_i34_j33_k2  rec_s64_edge_34_33_choose_one  1
    y_s64_i34_j33_k2  budget_K  -9.5400000000000009e+00
    y_s64_i35_j32_k0  rec_s64_edge_35_32_choose_one  1
    y_s64_i35_j32_k0  budget_K  -0.86
    y_s64_i35_j32_k1  rec_s64_edge_35_32_choose_one  1
    y_s64_i35_j32_k1  budget_K  3.56
    y_s64_i35_j32_k2  rec_s64_edge_35_32_choose_one  1
    y_s64_i35_j32_k2  budget_K  -13.25
    y_s64_i36_j49_k0  rec_s64_edge_36_49_choose_one  1
    y_s64_i36_j49_k0  budget_K  42.1
    y_s64_i36_j49_k1  rec_s64_edge_36_49_choose_one  1
    y_s64_i36_j49_k1  budget_K  -1.49
    y_s64_i36_j49_k2  rec_s64_edge_36_49_choose_one  1
    y_s64_i36_j49_k2  budget_K  1.77
    y_s64_i37_j39_k0  rec_s64_edge_37_39_choose_one  1
    y_s64_i37_j39_k0  budget_K  -46.96
    y_s64_i37_j39_k1  rec_s64_edge_37_39_choose_one  1
    y_s64_i37_j39_k1  budget_K  -33.34
    y_s64_i37_j39_k2  rec_s64_edge_37_39_choose_one  1
    y_s64_i37_j39_k2  budget_K  -25.22
    y_s64_i38_j15_k0  rec_s64_edge_38_15_choose_one  1
    y_s64_i38_j15_k0  budget_K  -7.8100000000000005e+00
    y_s64_i38_j15_k1  rec_s64_edge_38_15_choose_one  1
    y_s64_i38_j15_k1  budget_K  42.28
    y_s64_i38_j15_k2  rec_s64_edge_38_15_choose_one  1
    y_s64_i38_j15_k2  budget_K  -3.67
    y_s64_i39_j53_k0  rec_s64_edge_39_53_choose_one  1
    y_s64_i39_j53_k0  budget_K  2.0080000000000002e+01
    y_s64_i39_j53_k1  rec_s64_edge_39_53_choose_one  1
    y_s64_i39_j53_k1  budget_K  -23.16
    y_s64_i39_j53_k2  rec_s64_edge_39_53_choose_one  1
    y_s64_i39_j53_k2  budget_K  -29.85
    y_s64_i40_j37_k0  rec_s64_edge_40_37_choose_one  1
    y_s64_i40_j37_k0  budget_K  -18.34
    y_s64_i40_j37_k1  rec_s64_edge_40_37_choose_one  1
    y_s64_i40_j37_k1  budget_K  -18.43
    y_s64_i40_j37_k2  rec_s64_edge_40_37_choose_one  1
    y_s64_i40_j37_k2  budget_K  -26.57
    y_s64_i41_j4_k0  rec_s64_edge_41_4_choose_one  1
    y_s64_i41_j4_k0  budget_K  1.68
    y_s64_i41_j4_k1  rec_s64_edge_41_4_choose_one  1
    y_s64_i41_j4_k1  budget_K  -2
    y_s64_i41_j4_k2  rec_s64_edge_41_4_choose_one  1
    y_s64_i41_j4_k2  budget_K  -5.34
    y_s64_i42_j44_k0  rec_s64_edge_42_44_choose_one  1
    y_s64_i42_j44_k0  budget_K  -8.38
    y_s64_i42_j44_k1  rec_s64_edge_42_44_choose_one  1
    y_s64_i42_j44_k1  budget_K  -7.17
    y_s64_i42_j44_k2  rec_s64_edge_42_44_choose_one  1
    y_s64_i42_j44_k2  budget_K  -9.51
    y_s64_i43_j19_k0  rec_s64_edge_43_19_choose_one  1
    y_s64_i43_j19_k0  budget_K  -2.96
    y_s64_i43_j19_k1  rec_s64_edge_43_19_choose_one  1
    y_s64_i43_j19_k1  budget_K  -14.83
    y_s64_i43_j19_k2  rec_s64_edge_43_19_choose_one  1
    y_s64_i43_j19_k2  budget_K  -13.69
    y_s64_i44_j50_k0  rec_s64_edge_44_50_choose_one  1
    y_s64_i44_j50_k0  budget_K  12.4
    y_s64_i44_j50_k1  rec_s64_edge_44_50_choose_one  1
    y_s64_i44_j50_k1  budget_K  -2.4560000000000002e+01
    y_s64_i44_j50_k2  rec_s64_edge_44_50_choose_one  1
    y_s64_i44_j50_k2  budget_K  -29.1
    y_s64_i45_j18_k0  rec_s64_edge_45_18_choose_one  1
    y_s64_i45_j18_k0  budget_K  7.2700000000000005e+00
    y_s64_i45_j18_k1  rec_s64_edge_45_18_choose_one  1
    y_s64_i45_j18_k1  budget_K  -7.71
    y_s64_i45_j18_k2  rec_s64_edge_45_18_choose_one  1
    y_s64_i45_j18_k2  budget_K  18.72
    y_s64_i46_j42_k0  rec_s64_edge_46_42_choose_one  1
    y_s64_i46_j42_k0  budget_K  -7.58
    y_s64_i46_j42_k1  rec_s64_edge_46_42_choose_one  1
    y_s64_i46_j42_k1  budget_K  -10.35
    y_s64_i46_j42_k2  rec_s64_edge_46_42_choose_one  1
    y_s64_i46_j42_k2  budget_K  -2.86
    y_s64_i47_j41_k0  rec_s64_edge_47_41_choose_one  1
    y_s64_i47_j41_k0  budget_K  -13.48
    y_s64_i47_j41_k1  rec_s64_edge_47_41_choose_one  1
    y_s64_i47_j41_k1  budget_K  -2.52
    y_s64_i47_j41_k2  rec_s64_edge_47_41_choose_one  1
    y_s64_i47_j41_k2  budget_K  -9.43
    y_s64_i48_j51_k0  rec_s64_edge_48_51_choose_one  1
    y_s64_i48_j51_k0  budget_K  -7.68
    y_s64_i48_j51_k1  rec_s64_edge_48_51_choose_one  1
    y_s64_i48_j51_k1  budget_K  -4.28
    y_s64_i48_j51_k2  rec_s64_edge_48_51_choose_one  1
    y_s64_i48_j51_k2  budget_K  12.3
    y_s64_i49_j26_k0  rec_s64_edge_49_26_choose_one  1
    y_s64_i49_j26_k0  budget_K  -6.44
    y_s64_i49_j26_k1  rec_s64_edge_49_26_choose_one  1
    y_s64_i49_j26_k1  budget_K  -5.48
    y_s64_i49_j26_k2  rec_s64_edge_49_26_choose_one  1
    y_s64_i49_j26_k2  budget_K  -1.78
    y_s64_i50_j48_k0  rec_s64_edge_50_48_choose_one  1
    y_s64_i50_j48_k0  budget_K  -9.56
    y_s64_i50_j48_k1  rec_s64_edge_50_48_choose_one  1
    y_s64_i50_j48_k1  budget_K  -3.77
    y_s64_i50_j48_k2  rec_s64_edge_50_48_choose_one  1
    y_s64_i50_j48_k2  budget_K  -10.26
    y_s64_i51_j36_k0  rec_s64_edge_51_36_choose_one  1
    y_s64_i51_j36_k0  budget_K  -26.22
    y_s64_i51_j36_k1  rec_s64_edge_51_36_choose_one  1
    y_s64_i51_j36_k1  budget_K  -14.01
    y_s64_i51_j36_k2  rec_s64_edge_51_36_choose_one  1
    y_s64_i51_j36_k2  budget_K  -8.2900000000000009e+00
    y_s64_i52_j47_k0  rec_s64_edge_52_47_choose_one  1
    y_s64_i52_j47_k0  budget_K  -7.86
    y_s64_i52_j47_k1  rec_s64_edge_52_47_choose_one  1
    y_s64_i52_j47_k1  budget_K  1.4780000000000001e+01
    y_s64_i52_j47_k2  rec_s64_edge_52_47_choose_one  1
    y_s64_i52_j47_k2  budget_K  -9.66
    y_s64_i53_j43_k0  rec_s64_edge_53_43_choose_one  1
    y_s64_i53_j43_k0  budget_K  36.88
    y_s64_i53_j43_k1  rec_s64_edge_53_43_choose_one  1
    y_s64_i53_j43_k1  budget_K  -4.54
    y_s64_i53_j43_k2  rec_s64_edge_53_43_choose_one  1
    y_s64_i53_j43_k2  budget_K  -2.3000000000000003e+00
    y_s20_i0_j2_k0  rec_s20_edge_0_2_choose_one  1
    y_s20_i0_j2_k0  budget_K  -0.91
    y_s20_i0_j2_k1  rec_s20_edge_0_2_choose_one  1
    y_s20_i0_j2_k1  budget_K  -8.2000000000000006e-01
    y_s20_i0_j2_k2  rec_s20_edge_0_2_choose_one  1
    y_s20_i0_j2_k2  budget_K  -0.78
    y_s20_i1_j22_k0  rec_s20_edge_1_22_choose_one  1
    y_s20_i1_j22_k0  budget_K  -5.89
    y_s20_i1_j22_k1  rec_s20_edge_1_22_choose_one  1
    y_s20_i1_j22_k1  budget_K  -4.79
    y_s20_i1_j22_k2  rec_s20_edge_1_22_choose_one  1
    y_s20_i1_j22_k2  budget_K  -3.31
    y_s20_i2_j1_k0  rec_s20_edge_2_1_choose_one  1
    y_s20_i2_j1_k0  budget_K  -1.48
    y_s20_i2_j1_k1  rec_s20_edge_2_1_choose_one  1
    y_s20_i2_j1_k1  budget_K  -1.04
    y_s20_i2_j1_k2  rec_s20_edge_2_1_choose_one  1
    y_s20_i2_j1_k2  budget_K  -1.25
    y_s20_i3_j9_k0  rec_s20_edge_3_9_choose_one  1
    y_s20_i3_j9_k0  budget_K  -6.75
    y_s20_i3_j9_k1  rec_s20_edge_3_9_choose_one  1
    y_s20_i3_j9_k1  budget_K  -12.13
    y_s20_i3_j9_k2  rec_s20_edge_3_9_choose_one  1
    y_s20_i3_j9_k2  budget_K  0.16
    y_s20_i4_j34_k0  rec_s20_edge_4_34_choose_one  1
    y_s20_i4_j34_k0  budget_K  -14.81
    y_s20_i4_j34_k1  rec_s20_edge_4_34_choose_one  1
    y_s20_i4_j34_k1  budget_K  -14.9
    y_s20_i4_j34_k2  rec_s20_edge_4_34_choose_one  1
    y_s20_i4_j34_k2  budget_K  -1.25
    y_s20_i5_j0_k0  rec_s20_edge_5_0_choose_one  1
    y_s20_i5_j0_k0  budget_K  1.21
    y_s20_i5_j0_k1  rec_s20_edge_5_0_choose_one  1
    y_s20_i5_j0_k1  budget_K  -0.56
    y_s20_i5_j0_k2  rec_s20_edge_5_0_choose_one  1
    y_s20_i5_j0_k2  budget_K  16.63
    y_s20_i6_j52_k0  rec_s20_edge_6_52_choose_one  1
    y_s20_i6_j52_k0  budget_K  -8.9
    y_s20_i6_j52_k1  rec_s20_edge_6_52_choose_one  1
    y_s20_i6_j52_k1  budget_K  -5.09
    y_s20_i6_j52_k2  rec_s20_edge_6_52_choose_one  1
    y_s20_i6_j52_k2  budget_K  -7.74
    y_s20_i7_j3_k0  rec_s20_edge_7_3_choose_one  1
    y_s20_i7_j3_k0  budget_K  -2.85
    y_s20_i7_j3_k1  rec_s20_edge_7_3_choose_one  1
    y_s20_i7_j3_k1  budget_K  -1.83
    y_s20_i7_j3_k2  rec_s20_edge_7_3_choose_one  1
    y_s20_i7_j3_k2  budget_K  -3.29
    y_s20_i8_j10_k0  rec_s20_edge_8_10_choose_one  1
    y_s20_i8_j10_k0  budget_K  28.35
    y_s20_i8_j10_k1  rec_s20_edge_8_10_choose_one  1
    y_s20_i8_j10_k1  budget_K  1.25
    y_s20_i8_j10_k2  rec_s20_edge_8_10_choose_one  1
    y_s20_i8_j10_k2  budget_K  -4.13
    y_s20_i9_j6_k0  rec_s20_edge_9_6_choose_one  1
    y_s20_i9_j6_k0  budget_K  -0.84
    y_s20_i9_j6_k1  rec_s20_edge_9_6_choose_one  1
    y_s20_i9_j6_k1  budget_K  -0.29
    y_s20_i9_j6_k2  rec_s20_edge_9_6_choose_one  1
    y_s20_i9_j6_k2  budget_K  9.44
    y_s20_i10_j5_k0  rec_s20_edge_10_5_choose_one  1
    y_s20_i10_j5_k0  budget_K  -3.17
    y_s20_i10_j5_k1  rec_s20_edge_10_5_choose_one  1
    y_s20_i10_j5_k1  budget_K  -5.0600000000000005e+00
    y_s20_i10_j5_k2  rec_s20_edge_10_5_choose_one  1
    y_s20_i10_j5_k2  budget_K  -3.5100000000000002e+00
    y_s20_i11_j8_k0  rec_s20_edge_11_8_choose_one  1
    y_s20_i11_j8_k0  budget_K  -2.19
    y_s20_i11_j8_k1  rec_s20_edge_11_8_choose_one  1
    y_s20_i11_j8_k1  budget_K  -2.11
    y_s20_i11_j8_k2  rec_s20_edge_11_8_choose_one  1
    y_s20_i11_j8_k2  budget_K  1.67
    y_s20_i12_j11_k0  rec_s20_edge_12_11_choose_one  1
    y_s20_i12_j11_k0  budget_K  -1.1400000000000001e+00
    y_s20_i12_j11_k1  rec_s20_edge_12_11_choose_one  1
    y_s20_i12_j11_k1  budget_K  -0.39
    y_s20_i12_j11_k2  rec_s20_edge_12_11_choose_one  1
    y_s20_i12_j11_k2  budget_K  33.01
    y_s20_i13_j14_k0  rec_s20_edge_13_14_choose_one  1
    y_s20_i13_j14_k0  budget_K  -5.8500000000000005e+00
    y_s20_i13_j14_k1  rec_s20_edge_13_14_choose_one  1
    y_s20_i13_j14_k1  budget_K  -5.94
    y_s20_i13_j14_k2  rec_s20_edge_13_14_choose_one  1
    y_s20_i13_j14_k2  budget_K  -3.5500000000000003e+00
    y_s20_i14_j12_k0  rec_s20_edge_14_12_choose_one  1
    y_s20_i14_j12_k0  budget_K  -2.59
    y_s20_i14_j12_k1  rec_s20_edge_14_12_choose_one  1
    y_s20_i14_j12_k1  budget_K  -2.23
    y_s20_i14_j12_k2  rec_s20_edge_14_12_choose_one  1
    y_s20_i14_j12_k2  budget_K  2.9
    y_s20_i15_j13_k0  rec_s20_edge_15_13_choose_one  1
    y_s20_i15_j13_k0  budget_K  -10.56
    y_s20_i15_j13_k1  rec_s20_edge_15_13_choose_one  1
    y_s20_i15_j13_k1  budget_K  -2.5500000000000003e+00
    y_s20_i15_j13_k2  rec_s20_edge_15_13_choose_one  1
    y_s20_i15_j13_k2  budget_K  -9.4500000000000011e+00
    y_s20_i16_j17_k0  rec_s20_edge_16_17_choose_one  1
    y_s20_i16_j17_k0  budget_K  17.54
    y_s20_i16_j17_k1  rec_s20_edge_16_17_choose_one  1
    y_s20_i16_j17_k1  budget_K  -3.46
    y_s20_i16_j17_k2  rec_s20_edge_16_17_choose_one  1
    y_s20_i16_j17_k2  budget_K  -5.36
    y_s20_i17_j38_k0  rec_s20_edge_17_38_choose_one  1
    y_s20_i17_j38_k0  budget_K  0.14
    y_s20_i17_j38_k1  rec_s20_edge_17_38_choose_one  1
    y_s20_i17_j38_k1  budget_K  -4.92
    y_s20_i17_j38_k2  rec_s20_edge_17_38_choose_one  1
    y_s20_i17_j38_k2  budget_K  -5.93
    y_s20_i18_j20_k0  rec_s20_edge_18_20_choose_one  1
    y_s20_i18_j20_k0  budget_K  -1.53
    y_s20_i18_j20_k1  rec_s20_edge_18_20_choose_one  1
    y_s20_i18_j20_k1  budget_K  -2.72
    y_s20_i18_j20_k2  rec_s20_edge_18_20_choose_one  1
    y_s20_i18_j20_k2  budget_K  4.75
    y_s20_i19_j45_k0  rec_s20_edge_19_45_choose_one  1
    y_s20_i19_j45_k0  budget_K  -2.09
    y_s20_i19_j45_k1  rec_s20_edge_19_45_choose_one  1
    y_s20_i19_j45_k1  budget_K  -2.6
    y_s20_i19_j45_k2  rec_s20_edge_19_45_choose_one  1
    y_s20_i19_j45_k2  budget_K  -0.77
    y_s20_i20_j16_k0  rec_s20_edge_20_16_choose_one  1
    y_s20_i20_j16_k0  budget_K  -14.19
    y_s20_i20_j16_k1  rec_s20_edge_20_16_choose_one  1
    y_s20_i20_j16_k1  budget_K  -12.98
    y_s20_i20_j16_k2  rec_s20_edge_20_16_choose_one  1
    y_s20_i20_j16_k2  budget_K  -1.4700000000000001e+01
    y_s20_i21_j24_k0  rec_s20_edge_21_24_choose_one  1
    y_s20_i21_j24_k0  budget_K  -4.19
    y_s20_i21_j24_k1  rec_s20_edge_21_24_choose_one  1
    y_s20_i21_j24_k1  budget_K  10.52
    y_s20_i21_j24_k2  rec_s20_edge_21_24_choose_one  1
    y_s20_i21_j24_k2  budget_K  -1.2
    y_s20_i22_j21_k0  rec_s20_edge_22_21_choose_one  1
    y_s20_i22_j21_k0  budget_K  -6.5600000000000005e+00
    y_s20_i22_j21_k1  rec_s20_edge_22_21_choose_one  1
    y_s20_i22_j21_k1  budget_K  2.72
    y_s20_i22_j21_k2  rec_s20_edge_22_21_choose_one  1
    y_s20_i22_j21_k2  budget_K  -3.2
    y_s20_i23_j46_k0  rec_s20_edge_23_46_choose_one  1
    y_s20_i23_j46_k0  budget_K  1.0790000000000001e+01
    y_s20_i23_j46_k1  rec_s20_edge_23_46_choose_one  1
    y_s20_i23_j46_k1  budget_K  21.69
    y_s20_i23_j46_k2  rec_s20_edge_23_46_choose_one  1
    y_s20_i23_j46_k2  budget_K  -1.1540000000000001e+01
    y_s20_i24_j23_k0  rec_s20_edge_24_23_choose_one  1
    y_s20_i24_j23_k0  budget_K  -3.33
    y_s20_i24_j23_k1  rec_s20_edge_24_23_choose_one  1
    y_s20_i24_j23_k1  budget_K  -1.93
    y_s20_i24_j23_k2  rec_s20_edge_24_23_choose_one  1
    y_s20_i24_j23_k2  budget_K  -2.85
    y_s20_i25_j31_k0  rec_s20_edge_25_31_choose_one  1
    y_s20_i25_j31_k0  budget_K  -4.48
    y_s20_i25_j31_k1  rec_s20_edge_25_31_choose_one  1
    y_s20_i25_j31_k1  budget_K  0.37
    y_s20_i25_j31_k2  rec_s20_edge_25_31_choose_one  1
    y_s20_i25_j31_k2  budget_K  -3.2600000000000002e+00
    y_s20_i26_j27_k0  rec_s20_edge_26_27_choose_one  1
    y_s20_i26_j27_k0  budget_K  -0.1
    y_s20_i26_j27_k1  rec_s20_edge_26_27_choose_one  1
    y_s20_i26_j27_k1  budget_K  63.21
    y_s20_i26_j27_k2  rec_s20_edge_26_27_choose_one  1
    y_s20_i26_j27_k2  budget_K  -2.87
    y_s20_i27_j28_k0  rec_s20_edge_27_28_choose_one  1
    y_s20_i27_j28_k0  budget_K  2.9080000000000002e+01
    y_s20_i27_j28_k1  rec_s20_edge_27_28_choose_one  1
    y_s20_i27_j28_k1  budget_K  -0.14
    y_s20_i27_j28_k2  rec_s20_edge_27_28_choose_one  1
    y_s20_i27_j28_k2  budget_K  -4.0600000000000005e+00
    y_s20_i28_j25_k0  rec_s20_edge_28_25_choose_one  1
    y_s20_i28_j25_k0  budget_K  -1.27
    y_s20_i28_j25_k1  rec_s20_edge_28_25_choose_one  1
    y_s20_i28_j25_k1  budget_K  -3.8200000000000003e+00
    y_s20_i28_j25_k2  rec_s20_edge_28_25_choose_one  1
    y_s20_i28_j25_k2  budget_K  -4.08
    y_s20_i29_j7_k0  rec_s20_edge_29_7_choose_one  1
    y_s20_i29_j7_k0  budget_K  -9.51
    y_s20_i29_j7_k1  rec_s20_edge_29_7_choose_one  1
    y_s20_i29_j7_k1  budget_K  -6.3900000000000006e+00
    y_s20_i29_j7_k2  rec_s20_edge_29_7_choose_one  1
    y_s20_i29_j7_k2  budget_K  -4.21
    y_s20_i30_j29_k0  rec_s20_edge_30_29_choose_one  1
    y_s20_i30_j29_k0  budget_K  1.25
    y_s20_i30_j29_k1  rec_s20_edge_30_29_choose_one  1
    y_s20_i30_j29_k1  budget_K  -2.54
    y_s20_i30_j29_k2  rec_s20_edge_30_29_choose_one  1
    y_s20_i30_j29_k2  budget_K  -2.93
    y_s20_i31_j30_k0  rec_s20_edge_31_30_choose_one  1
    y_s20_i31_j30_k0  budget_K  -0.15
    y_s20_i31_j30_k1  rec_s20_edge_31_30_choose_one  1
    y_s20_i31_j30_k1  budget_K  1.98
    y_s20_i31_j30_k2  rec_s20_edge_31_30_choose_one  1
    y_s20_i31_j30_k2  budget_K  -3.0300000000000002e+00
    y_s20_i32_j40_k0  rec_s20_edge_32_40_choose_one  1
    y_s20_i32_j40_k0  budget_K  170.79
    y_s20_i32_j40_k1  rec_s20_edge_32_40_choose_one  1
    y_s20_i32_j40_k1  budget_K  -1.5290000000000001e+01
    y_s20_i32_j40_k2  rec_s20_edge_32_40_choose_one  1
    y_s20_i32_j40_k2  budget_K  142.05
    y_s20_i33_j35_k0  rec_s20_edge_33_35_choose_one  1
    y_s20_i33_j35_k0  budget_K  -5.62
    y_s20_i33_j35_k1  rec_s20_edge_33_35_choose_one  1
    y_s20_i33_j35_k1  budget_K  -5.54
    y_s20_i33_j35_k2  rec_s20_edge_33_35_choose_one  1
    y_s20_i33_j35_k2  budget_K  -1.79
    y_s20_i34_j33_k0  rec_s20_edge_34_33_choose_one  1
    y_s20_i34_j33_k0  budget_K  -15.05
    y_s20_i34_j33_k1  rec_s20_edge_34_33_choose_one  1
    y_s20_i34_j33_k1  budget_K  1.6
    y_s20_i34_j33_k2  rec_s20_edge_34_33_choose_one  1
    y_s20_i34_j33_k2  budget_K  3.13
    y_s20_i35_j32_k0  rec_s20_edge_35_32_choose_one  1
    y_s20_i35_j32_k0  budget_K  -12.98
    y_s20_i35_j32_k1  rec_s20_edge_35_32_choose_one  1
    y_s20_i35_j32_k1  budget_K  -9.19
    y_s20_i35_j32_k2  rec_s20_edge_35_32_choose_one  1
    y_s20_i35_j32_k2  budget_K  1.1290000000000001e+01
    y_s20_i36_j49_k0  rec_s20_edge_36_49_choose_one  1
    y_s20_i36_j49_k0  budget_K  -1.6
    y_s20_i36_j49_k1  rec_s20_edge_36_49_choose_one  1
    y_s20_i36_j49_k1  budget_K  -1.73
    y_s20_i36_j49_k2  rec_s20_edge_36_49_choose_one  1
    y_s20_i36_j49_k2  budget_K  0.52
    y_s20_i37_j39_k0  rec_s20_edge_37_39_choose_one  1
    y_s20_i37_j39_k0  budget_K  -4.1480000000000004e+01
    y_s20_i37_j39_k1  rec_s20_edge_37_39_choose_one  1
    y_s20_i37_j39_k1  budget_K  -35.68
    y_s20_i37_j39_k2  rec_s20_edge_37_39_choose_one  1
    y_s20_i37_j39_k2  budget_K  -31.35
    y_s20_i38_j15_k0  rec_s20_edge_38_15_choose_one  1
    y_s20_i38_j15_k0  budget_K  -6.84
    y_s20_i38_j15_k1  rec_s20_edge_38_15_choose_one  1
    y_s20_i38_j15_k1  budget_K  -2.67
    y_s20_i38_j15_k2  rec_s20_edge_38_15_choose_one  1
    y_s20_i38_j15_k2  budget_K  37.51
    y_s20_i39_j53_k0  rec_s20_edge_39_53_choose_one  1
    y_s20_i39_j53_k0  budget_K  -27.3
    y_s20_i39_j53_k1  rec_s20_edge_39_53_choose_one  1
    y_s20_i39_j53_k1  budget_K  16.47
    y_s20_i39_j53_k2  rec_s20_edge_39_53_choose_one  1
    y_s20_i39_j53_k2  budget_K  -16.72
    y_s20_i40_j37_k0  rec_s20_edge_40_37_choose_one  1
    y_s20_i40_j37_k0  budget_K  -3.3480000000000004e+01
    y_s20_i40_j37_k1  rec_s20_edge_40_37_choose_one  1
    y_s20_i40_j37_k1  budget_K  -32.01
    y_s20_i40_j37_k2  rec_s20_edge_40_37_choose_one  1
    y_s20_i40_j37_k2  budget_K  -2.3580000000000002e+01
    y_s20_i41_j4_k0  rec_s20_edge_41_4_choose_one  1
    y_s20_i41_j4_k0  budget_K  -5.21
    y_s20_i41_j4_k1  rec_s20_edge_41_4_choose_one  1
    y_s20_i41_j4_k1  budget_K  -6.26
    y_s20_i41_j4_k2  rec_s20_edge_41_4_choose_one  1
    y_s20_i41_j4_k2  budget_K  -2.7
    y_s20_i42_j44_k0  rec_s20_edge_42_44_choose_one  1
    y_s20_i42_j44_k0  budget_K  -6.48
    y_s20_i42_j44_k1  rec_s20_edge_42_44_choose_one  1
    y_s20_i42_j44_k1  budget_K  7.23
    y_s20_i42_j44_k2  rec_s20_edge_42_44_choose_one  1
    y_s20_i42_j44_k2  budget_K  -10.07
    y_s20_i43_j19_k0  rec_s20_edge_43_19_choose_one  1
    y_s20_i43_j19_k0  budget_K  -4.76
    y_s20_i43_j19_k1  rec_s20_edge_43_19_choose_one  1
    y_s20_i43_j19_k1  budget_K  24.26
    y_s20_i43_j19_k2  rec_s20_edge_43_19_choose_one  1
    y_s20_i43_j19_k2  budget_K  -12.43
    y_s20_i44_j50_k0  rec_s20_edge_44_50_choose_one  1
    y_s20_i44_j50_k0  budget_K  59.96
    y_s20_i44_j50_k1  rec_s20_edge_44_50_choose_one  1
    y_s20_i44_j50_k1  budget_K  16.09
    y_s20_i44_j50_k2  rec_s20_edge_44_50_choose_one  1
    y_s20_i44_j50_k2  budget_K  -11.17
    y_s20_i45_j18_k0  rec_s20_edge_45_18_choose_one  1
    y_s20_i45_j18_k0  budget_K  -9.8700000000000010e+00
    y_s20_i45_j18_k1  rec_s20_edge_45_18_choose_one  1
    y_s20_i45_j18_k1  budget_K  -6.72
    y_s20_i45_j18_k2  rec_s20_edge_45_18_choose_one  1
    y_s20_i45_j18_k2  budget_K  2.16
    y_s20_i46_j42_k0  rec_s20_edge_46_42_choose_one  1
    y_s20_i46_j42_k0  budget_K  32.44
    y_s20_i46_j42_k1  rec_s20_edge_46_42_choose_one  1
    y_s20_i46_j42_k1  budget_K  -5.79
    y_s20_i46_j42_k2  rec_s20_edge_46_42_choose_one  1
    y_s20_i46_j42_k2  budget_K  -1.9000000000000001e+00
    y_s20_i47_j41_k0  rec_s20_edge_47_41_choose_one  1
    y_s20_i47_j41_k0  budget_K  -2.08
    y_s20_i47_j41_k1  rec_s20_edge_47_41_choose_one  1
    y_s20_i47_j41_k1  budget_K  -10.73
    y_s20_i47_j41_k2  rec_s20_edge_47_41_choose_one  1
    y_s20_i47_j41_k2  budget_K  5
    y_s20_i48_j51_k0  rec_s20_edge_48_51_choose_one  1
    y_s20_i48_j51_k0  budget_K  -9.2900000000000009e+00
    y_s20_i48_j51_k1  rec_s20_edge_48_51_choose_one  1
    y_s20_i48_j51_k1  budget_K  32.35
    y_s20_i48_j51_k2  rec_s20_edge_48_51_choose_one  1
    y_s20_i48_j51_k2  budget_K  86.76
    y_s20_i49_j26_k0  rec_s20_edge_49_26_choose_one  1
    y_s20_i49_j26_k0  budget_K  -5.21
    y_s20_i49_j26_k1  rec_s20_edge_49_26_choose_one  1
    y_s20_i49_j26_k1  budget_K  -4.28
    y_s20_i49_j26_k2  rec_s20_edge_49_26_choose_one  1
    y_s20_i49_j26_k2  budget_K  3.16
    y_s20_i50_j48_k0  rec_s20_edge_50_48_choose_one  1
    y_s20_i50_j48_k0  budget_K  -5.8
    y_s20_i50_j48_k1  rec_s20_edge_50_48_choose_one  1
    y_s20_i50_j48_k1  budget_K  -12.58
    y_s20_i50_j48_k2  rec_s20_edge_50_48_choose_one  1
    y_s20_i50_j48_k2  budget_K  4.15
    y_s20_i51_j36_k0  rec_s20_edge_51_36_choose_one  1
    y_s20_i51_j36_k0  budget_K  -23.35
    y_s20_i51_j36_k1  rec_s20_edge_51_36_choose_one  1
    y_s20_i51_j36_k1  budget_K  -24.46
    y_s20_i51_j36_k2  rec_s20_edge_51_36_choose_one  1
    y_s20_i51_j36_k2  budget_K  -19.91
    y_s20_i52_j47_k0  rec_s20_edge_52_47_choose_one  1
    y_s20_i52_j47_k0  budget_K  -5.7000000000000006e-01
    y_s20_i52_j47_k1  rec_s20_edge_52_47_choose_one  1
    y_s20_i52_j47_k1  budget_K  -6.08
    y_s20_i52_j47_k2  rec_s20_edge_52_47_choose_one  1
    y_s20_i52_j47_k2  budget_K  145.99
    y_s20_i53_j43_k0  rec_s20_edge_53_43_choose_one  1
    y_s20_i53_j43_k0  budget_K  1.08
    y_s20_i53_j43_k1  rec_s20_edge_53_43_choose_one  1
    y_s20_i53_j43_k1  budget_K  -7.1000000000000005e+00
    y_s20_i53_j43_k2  rec_s20_edge_53_43_choose_one  1
    y_s20_i53_j43_k2  budget_K  -3.77
    y_s51_i0_j2_k0  rec_s51_edge_0_2_choose_one  1
    y_s51_i0_j2_k1  rec_s51_edge_0_2_choose_one  1
    y_s51_i0_j2_k1  budget_K  -1.06
    y_s51_i0_j2_k2  rec_s51_edge_0_2_choose_one  1
    y_s51_i0_j2_k2  budget_K  -0.56
    y_s51_i1_j22_k0  rec_s51_edge_1_22_choose_one  1
    y_s51_i1_j22_k0  budget_K  -4.08
    y_s51_i1_j22_k1  rec_s51_edge_1_22_choose_one  1
    y_s51_i1_j22_k1  budget_K  4.38
    y_s51_i1_j22_k2  rec_s51_edge_1_22_choose_one  1
    y_s51_i1_j22_k2  budget_K  -3.77
    y_s51_i2_j1_k0  rec_s51_edge_2_1_choose_one  1
    y_s51_i2_j1_k0  budget_K  -0.31
    y_s51_i2_j1_k1  rec_s51_edge_2_1_choose_one  1
    y_s51_i2_j1_k1  budget_K  0.39
    y_s51_i2_j1_k2  rec_s51_edge_2_1_choose_one  1
    y_s51_i2_j1_k2  budget_K  -1.42
    y_s51_i3_j9_k0  rec_s51_edge_3_9_choose_one  1
    y_s51_i3_j9_k0  budget_K  93.45
    y_s51_i3_j9_k1  rec_s51_edge_3_9_choose_one  1
    y_s51_i3_j9_k1  budget_K  -10.8
    y_s51_i3_j9_k2  rec_s51_edge_3_9_choose_one  1
    y_s51_i3_j9_k2  budget_K  -9.5400000000000009e+00
    y_s51_i4_j34_k0  rec_s51_edge_4_34_choose_one  1
    y_s51_i4_j34_k0  budget_K  -15.22
    y_s51_i4_j34_k1  rec_s51_edge_4_34_choose_one  1
    y_s51_i4_j34_k1  budget_K  -10.13
    y_s51_i4_j34_k2  rec_s51_edge_4_34_choose_one  1
    y_s51_i4_j34_k2  budget_K  -14.51
    y_s51_i5_j0_k0  rec_s51_edge_5_0_choose_one  1
    y_s51_i5_j0_k0  budget_K  -4.32
    y_s51_i5_j0_k1  rec_s51_edge_5_0_choose_one  1
    y_s51_i5_j0_k1  budget_K  7.2
    y_s51_i5_j0_k2  rec_s51_edge_5_0_choose_one  1
    y_s51_i5_j0_k2  budget_K  -5.95
    y_s51_i6_j52_k0  rec_s51_edge_6_52_choose_one  1
    y_s51_i6_j52_k0  budget_K  1.37
    y_s51_i6_j52_k1  rec_s51_edge_6_52_choose_one  1
    y_s51_i6_j52_k1  budget_K  -4.71
    y_s51_i6_j52_k2  rec_s51_edge_6_52_choose_one  1
    y_s51_i6_j52_k2  budget_K  1.53
    y_s51_i7_j3_k0  rec_s51_edge_7_3_choose_one  1
    y_s51_i7_j3_k0  budget_K  1.42
    y_s51_i7_j3_k1  rec_s51_edge_7_3_choose_one  1
    y_s51_i7_j3_k1  budget_K  7.75
    y_s51_i7_j3_k2  rec_s51_edge_7_3_choose_one  1
    y_s51_i7_j3_k2  budget_K  -1.23
    y_s51_i8_j10_k0  rec_s51_edge_8_10_choose_one  1
    y_s51_i8_j10_k0  budget_K  -2.3000000000000003e+00
    y_s51_i8_j10_k1  rec_s51_edge_8_10_choose_one  1
    y_s51_i8_j10_k1  budget_K  -5.0200000000000005e+00
    y_s51_i8_j10_k2  rec_s51_edge_8_10_choose_one  1
    y_s51_i8_j10_k2  budget_K  -2.39
    y_s51_i9_j6_k0  rec_s51_edge_9_6_choose_one  1
    y_s51_i9_j6_k0  budget_K  -3.66
    y_s51_i9_j6_k1  rec_s51_edge_9_6_choose_one  1
    y_s51_i9_j6_k1  budget_K  -6.48
    y_s51_i9_j6_k2  rec_s51_edge_9_6_choose_one  1
    y_s51_i9_j6_k2  budget_K  1.53
    y_s51_i10_j5_k0  rec_s51_edge_10_5_choose_one  1
    y_s51_i10_j5_k0  budget_K  -2.72
    y_s51_i10_j5_k1  rec_s51_edge_10_5_choose_one  1
    y_s51_i10_j5_k1  budget_K  5.66
    y_s51_i10_j5_k2  rec_s51_edge_10_5_choose_one  1
    y_s51_i10_j5_k2  budget_K  -4.69
    y_s51_i11_j8_k0  rec_s51_edge_11_8_choose_one  1
    y_s51_i11_j8_k0  budget_K  -2.06
    y_s51_i11_j8_k1  rec_s51_edge_11_8_choose_one  1
    y_s51_i11_j8_k1  budget_K  -3.61
    y_s51_i11_j8_k2  rec_s51_edge_11_8_choose_one  1
    y_s51_i11_j8_k2  budget_K  4.79
    y_s51_i12_j11_k0  rec_s51_edge_12_11_choose_one  1
    y_s51_i12_j11_k0  budget_K  -1.37
    y_s51_i12_j11_k1  rec_s51_edge_12_11_choose_one  1
    y_s51_i12_j11_k1  budget_K  4.28
    y_s51_i12_j11_k2  rec_s51_edge_12_11_choose_one  1
    y_s51_i12_j11_k2  budget_K  -1.8
    y_s51_i13_j14_k0  rec_s51_edge_13_14_choose_one  1
    y_s51_i13_j14_k0  budget_K  -0.66
    y_s51_i13_j14_k1  rec_s51_edge_13_14_choose_one  1
    y_s51_i13_j14_k1  budget_K  -4.1
    y_s51_i13_j14_k2  rec_s51_edge_13_14_choose_one  1
    y_s51_i13_j14_k2  budget_K  -5.04
    y_s51_i14_j12_k0  rec_s51_edge_14_12_choose_one  1
    y_s51_i14_j12_k0  budget_K  1.06
    y_s51_i14_j12_k1  rec_s51_edge_14_12_choose_one  1
    y_s51_i14_j12_k1  budget_K  149.8
    y_s51_i14_j12_k2  rec_s51_edge_14_12_choose_one  1
    y_s51_i14_j12_k2  budget_K  -9.51
    y_s51_i15_j13_k0  rec_s51_edge_15_13_choose_one  1
    y_s51_i15_j13_k0  budget_K  3.38
    y_s51_i15_j13_k1  rec_s51_edge_15_13_choose_one  1
    y_s51_i15_j13_k1  budget_K  -2.0100000000000002e+00
    y_s51_i15_j13_k2  rec_s51_edge_15_13_choose_one  1
    y_s51_i15_j13_k2  budget_K  -13.56
    y_s51_i16_j17_k0  rec_s51_edge_16_17_choose_one  1
    y_s51_i16_j17_k0  budget_K  -5.03
    y_s51_i16_j17_k1  rec_s51_edge_16_17_choose_one  1
    y_s51_i16_j17_k1  budget_K  -6.61
    y_s51_i16_j17_k2  rec_s51_edge_16_17_choose_one  1
    y_s51_i16_j17_k2  budget_K  2.5490000000000002e+01
    y_s51_i17_j38_k0  rec_s51_edge_17_38_choose_one  1
    y_s51_i17_j38_k0  budget_K  9.6
    y_s51_i17_j38_k1  rec_s51_edge_17_38_choose_one  1
    y_s51_i17_j38_k1  budget_K  -3.37
    y_s51_i17_j38_k2  rec_s51_edge_17_38_choose_one  1
    y_s51_i17_j38_k2  budget_K  -1.16
    y_s51_i18_j20_k0  rec_s51_edge_18_20_choose_one  1
    y_s51_i18_j20_k0  budget_K  -3.19
    y_s51_i18_j20_k1  rec_s51_edge_18_20_choose_one  1
    y_s51_i18_j20_k1  budget_K  -1.95
    y_s51_i18_j20_k2  rec_s51_edge_18_20_choose_one  1
    y_s51_i18_j20_k2  budget_K  2.46
    y_s51_i19_j45_k0  rec_s51_edge_19_45_choose_one  1
    y_s51_i19_j45_k0  budget_K  -1.47
    y_s51_i19_j45_k1  rec_s51_edge_19_45_choose_one  1
    y_s51_i19_j45_k1  budget_K  -1.8900000000000001e+00
    y_s51_i19_j45_k2  rec_s51_edge_19_45_choose_one  1
    y_s51_i19_j45_k2  budget_K  -2.32
    y_s51_i20_j16_k0  rec_s51_edge_20_16_choose_one  1
    y_s51_i20_j16_k0  budget_K  -6.54
    y_s51_i20_j16_k1  rec_s51_edge_20_16_choose_one  1
    y_s51_i20_j16_k1  budget_K  -14.5
    y_s51_i20_j16_k2  rec_s51_edge_20_16_choose_one  1
    y_s51_i20_j16_k2  budget_K  81.3
    y_s51_i21_j24_k0  rec_s51_edge_21_24_choose_one  1
    y_s51_i21_j24_k0  budget_K  3.45
    y_s51_i21_j24_k1  rec_s51_edge_21_24_choose_one  1
    y_s51_i21_j24_k1  budget_K  8.2900000000000009e+00
    y_s51_i21_j24_k2  rec_s51_edge_21_24_choose_one  1
    y_s51_i21_j24_k2  budget_K  -1.69
    y_s51_i22_j21_k0  rec_s51_edge_22_21_choose_one  1
    y_s51_i22_j21_k0  budget_K  6.99
    y_s51_i22_j21_k1  rec_s51_edge_22_21_choose_one  1
    y_s51_i22_j21_k1  budget_K  38.67
    y_s51_i22_j21_k2  rec_s51_edge_22_21_choose_one  1
    y_s51_i22_j21_k2  budget_K  -3.33
    y_s51_i23_j46_k0  rec_s51_edge_23_46_choose_one  1
    y_s51_i23_j46_k0  budget_K  -5.7700000000000005e+00
    y_s51_i23_j46_k1  rec_s51_edge_23_46_choose_one  1
    y_s51_i23_j46_k1  budget_K  -10.46
    y_s51_i23_j46_k2  rec_s51_edge_23_46_choose_one  1
    y_s51_i23_j46_k2  budget_K  27.97
    y_s51_i24_j23_k0  rec_s51_edge_24_23_choose_one  1
    y_s51_i24_j23_k0  budget_K  2.18
    y_s51_i24_j23_k1  rec_s51_edge_24_23_choose_one  1
    y_s51_i24_j23_k1  budget_K  -1.68
    y_s51_i24_j23_k2  rec_s51_edge_24_23_choose_one  1
    y_s51_i24_j23_k2  budget_K  -3.35
    y_s51_i25_j31_k0  rec_s51_edge_25_31_choose_one  1
    y_s51_i25_j31_k0  budget_K  -3.96
    y_s51_i25_j31_k1  rec_s51_edge_25_31_choose_one  1
    y_s51_i25_j31_k1  budget_K  17
    y_s51_i25_j31_k2  rec_s51_edge_25_31_choose_one  1
    y_s51_i25_j31_k2  budget_K  -5.46
    y_s51_i26_j27_k0  rec_s51_edge_26_27_choose_one  1
    y_s51_i26_j27_k0  budget_K  -3.9
    y_s51_i26_j27_k1  rec_s51_edge_26_27_choose_one  1
    y_s51_i26_j27_k1  budget_K  -2.29
    y_s51_i26_j27_k2  rec_s51_edge_26_27_choose_one  1
    y_s51_i26_j27_k2  budget_K  -3.75
    y_s51_i27_j28_k0  rec_s51_edge_27_28_choose_one  1
    y_s51_i27_j28_k0  budget_K  -7.13
    y_s51_i27_j28_k1  rec_s51_edge_27_28_choose_one  1
    y_s51_i27_j28_k1  budget_K  -1.3
    y_s51_i27_j28_k2  rec_s51_edge_27_28_choose_one  1
    y_s51_i27_j28_k2  budget_K  3.9550000000000004e+01
    y_s51_i28_j25_k0  rec_s51_edge_28_25_choose_one  1
    y_s51_i28_j25_k0  budget_K  -2.91
    y_s51_i28_j25_k1  rec_s51_edge_28_25_choose_one  1
    y_s51_i28_j25_k1  budget_K  -7.03
    y_s51_i28_j25_k2  rec_s51_edge_28_25_choose_one  1
    y_s51_i28_j25_k2  budget_K  8.31
    y_s51_i29_j7_k0  rec_s51_edge_29_7_choose_one  1
    y_s51_i29_j7_k0  budget_K  -5.21
    y_s51_i29_j7_k1  rec_s51_edge_29_7_choose_one  1
    y_s51_i29_j7_k1  budget_K  -8.63
    y_s51_i29_j7_k2  rec_s51_edge_29_7_choose_one  1
    y_s51_i29_j7_k2  budget_K  25.71
    y_s51_i30_j29_k0  rec_s51_edge_30_29_choose_one  1
    y_s51_i30_j29_k0  budget_K  -2.31
    y_s51_i30_j29_k1  rec_s51_edge_30_29_choose_one  1
    y_s51_i30_j29_k1  budget_K  0.2
    y_s51_i30_j29_k2  rec_s51_edge_30_29_choose_one  1
    y_s51_i30_j29_k2  budget_K  -2
    y_s51_i31_j30_k0  rec_s51_edge_31_30_choose_one  1
    y_s51_i31_j30_k0  budget_K  -0.5
    y_s51_i31_j30_k1  rec_s51_edge_31_30_choose_one  1
    y_s51_i31_j30_k1  budget_K  63.97
    y_s51_i31_j30_k2  rec_s51_edge_31_30_choose_one  1
    y_s51_i31_j30_k2  budget_K  3.54
    y_s51_i32_j40_k0  rec_s51_edge_32_40_choose_one  1
    y_s51_i32_j40_k0  budget_K  -9.02
    y_s51_i32_j40_k1  rec_s51_edge_32_40_choose_one  1
    y_s51_i32_j40_k1  budget_K  -1.7400000000000002e+01
    y_s51_i32_j40_k2  rec_s51_edge_32_40_choose_one  1
    y_s51_i32_j40_k2  budget_K  -20.56
    y_s51_i33_j35_k0  rec_s51_edge_33_35_choose_one  1
    y_s51_i33_j35_k0  budget_K  -1.6600000000000001e+00
    y_s51_i33_j35_k1  rec_s51_edge_33_35_choose_one  1
    y_s51_i33_j35_k1  budget_K  2.5500000000000003e+00
    y_s51_i33_j35_k2  rec_s51_edge_33_35_choose_one  1
    y_s51_i33_j35_k2  budget_K  3.1830000000000002e+01
    y_s51_i34_j33_k0  rec_s51_edge_34_33_choose_one  1
    y_s51_i34_j33_k0  budget_K  -12.3
    y_s51_i34_j33_k1  rec_s51_edge_34_33_choose_one  1
    y_s51_i34_j33_k1  budget_K  -6.7700000000000005e+00
    y_s51_i34_j33_k2  rec_s51_edge_34_33_choose_one  1
    y_s51_i34_j33_k2  budget_K  -8.81
    y_s51_i35_j32_k0  rec_s51_edge_35_32_choose_one  1
    y_s51_i35_j32_k0  budget_K  -7.84
    y_s51_i35_j32_k1  rec_s51_edge_35_32_choose_one  1
    y_s51_i35_j32_k1  budget_K  -7.76
    y_s51_i35_j32_k2  rec_s51_edge_35_32_choose_one  1
    y_s51_i35_j32_k2  budget_K  -13.84
    y_s51_i36_j49_k0  rec_s51_edge_36_49_choose_one  1
    y_s51_i36_j49_k0  budget_K  -2.48
    y_s51_i36_j49_k1  rec_s51_edge_36_49_choose_one  1
    y_s51_i36_j49_k1  budget_K  -2.23
    y_s51_i36_j49_k2  rec_s51_edge_36_49_choose_one  1
    y_s51_i36_j49_k2  budget_K  -1.34
    y_s51_i37_j39_k0  rec_s51_edge_37_39_choose_one  1
    y_s51_i37_j39_k0  budget_K  -36.97
    y_s51_i37_j39_k1  rec_s51_edge_37_39_choose_one  1
    y_s51_i37_j39_k1  budget_K  -27.72
    y_s51_i37_j39_k2  rec_s51_edge_37_39_choose_one  1
    y_s51_i37_j39_k2  budget_K  -18.67
    y_s51_i38_j15_k0  rec_s51_edge_38_15_choose_one  1
    y_s51_i38_j15_k0  budget_K  23.59
    y_s51_i38_j15_k1  rec_s51_edge_38_15_choose_one  1
    y_s51_i38_j15_k1  budget_K  -0.26
    y_s51_i38_j15_k2  rec_s51_edge_38_15_choose_one  1
    y_s51_i38_j15_k2  budget_K  -5.96
    y_s51_i39_j53_k0  rec_s51_edge_39_53_choose_one  1
    y_s51_i39_j53_k0  budget_K  141.01
    y_s51_i39_j53_k1  rec_s51_edge_39_53_choose_one  1
    y_s51_i39_j53_k1  budget_K  -20.59
    y_s51_i39_j53_k2  rec_s51_edge_39_53_choose_one  1
    y_s51_i39_j53_k2  budget_K  -32.79
    y_s51_i40_j37_k0  rec_s51_edge_40_37_choose_one  1
    y_s51_i40_j37_k0  budget_K  -20.88
    y_s51_i40_j37_k1  rec_s51_edge_40_37_choose_one  1
    y_s51_i40_j37_k1  budget_K  -10.92
    y_s51_i40_j37_k2  rec_s51_edge_40_37_choose_one  1
    y_s51_i40_j37_k2  budget_K  18.32
    y_s51_i41_j4_k0  rec_s51_edge_41_4_choose_one  1
    y_s51_i41_j4_k0  budget_K  -3.69
    y_s51_i41_j4_k1  rec_s51_edge_41_4_choose_one  1
    y_s51_i41_j4_k1  budget_K  -5.15
    y_s51_i41_j4_k2  rec_s51_edge_41_4_choose_one  1
    y_s51_i41_j4_k2  budget_K  8.73
    y_s51_i42_j44_k0  rec_s51_edge_42_44_choose_one  1
    y_s51_i42_j44_k0  budget_K  -10.13
    y_s51_i42_j44_k1  rec_s51_edge_42_44_choose_one  1
    y_s51_i42_j44_k1  budget_K  3.34
    y_s51_i42_j44_k2  rec_s51_edge_42_44_choose_one  1
    y_s51_i42_j44_k2  budget_K  -7
    y_s51_i43_j19_k0  rec_s51_edge_43_19_choose_one  1
    y_s51_i43_j19_k0  budget_K  -5.49
    y_s51_i43_j19_k1  rec_s51_edge_43_19_choose_one  1
    y_s51_i43_j19_k1  budget_K  -12.71
    y_s51_i43_j19_k2  rec_s51_edge_43_19_choose_one  1
    y_s51_i43_j19_k2  budget_K  5.57
    y_s51_i44_j50_k0  rec_s51_edge_44_50_choose_one  1
    y_s51_i44_j50_k0  budget_K  -1.46
    y_s51_i44_j50_k1  rec_s51_edge_44_50_choose_one  1
    y_s51_i44_j50_k1  budget_K  -16.81
    y_s51_i44_j50_k2  rec_s51_edge_44_50_choose_one  1
    y_s51_i44_j50_k2  budget_K  13.88
    y_s51_i45_j18_k0  rec_s51_edge_45_18_choose_one  1
    y_s51_i45_j18_k0  budget_K  -6.03
    y_s51_i45_j18_k1  rec_s51_edge_45_18_choose_one  1
    y_s51_i45_j18_k1  budget_K  -4.3500000000000005e+00
    y_s51_i45_j18_k2  rec_s51_edge_45_18_choose_one  1
    y_s51_i45_j18_k2  budget_K  -7.96
    y_s51_i46_j42_k0  rec_s51_edge_46_42_choose_one  1
    y_s51_i46_j42_k0  budget_K  -9.23
    y_s51_i46_j42_k1  rec_s51_edge_46_42_choose_one  1
    y_s51_i46_j42_k1  budget_K  -1.05
    y_s51_i46_j42_k2  rec_s51_edge_46_42_choose_one  1
    y_s51_i46_j42_k2  budget_K  -7.8900000000000006e+00
    y_s51_i47_j41_k0  rec_s51_edge_47_41_choose_one  1
    y_s51_i47_j41_k0  budget_K  0.34
    y_s51_i47_j41_k1  rec_s51_edge_47_41_choose_one  1
    y_s51_i47_j41_k1  budget_K  -1.2540000000000001e+01
    y_s51_i47_j41_k2  rec_s51_edge_47_41_choose_one  1
    y_s51_i47_j41_k2  budget_K  -1.77
    y_s51_i48_j51_k0  rec_s51_edge_48_51_choose_one  1
    y_s51_i48_j51_k0  budget_K  -6.18
    y_s51_i48_j51_k1  rec_s51_edge_48_51_choose_one  1
    y_s51_i48_j51_k1  budget_K  -3.7800000000000002e+00
    y_s51_i48_j51_k2  rec_s51_edge_48_51_choose_one  1
    y_s51_i48_j51_k2  budget_K  -4.2
    y_s51_i49_j26_k0  rec_s51_edge_49_26_choose_one  1
    y_s51_i49_j26_k0  budget_K  -5.63
    y_s51_i49_j26_k1  rec_s51_edge_49_26_choose_one  1
    y_s51_i49_j26_k1  budget_K  -5.17
    y_s51_i49_j26_k2  rec_s51_edge_49_26_choose_one  1
    y_s51_i49_j26_k2  budget_K  -2.89
    y_s51_i50_j48_k0  rec_s51_edge_50_48_choose_one  1
    y_s51_i50_j48_k0  budget_K  -2.39
    y_s51_i50_j48_k1  rec_s51_edge_50_48_choose_one  1
    y_s51_i50_j48_k1  budget_K  -12.96
    y_s51_i50_j48_k2  rec_s51_edge_50_48_choose_one  1
    y_s51_i50_j48_k2  budget_K  7.7700000000000005e+00
    y_s51_i51_j36_k0  rec_s51_edge_51_36_choose_one  1
    y_s51_i51_j36_k0  budget_K  -25.22
    y_s51_i51_j36_k1  rec_s51_edge_51_36_choose_one  1
    y_s51_i51_j36_k1  budget_K  -23.41
    y_s51_i51_j36_k2  rec_s51_edge_51_36_choose_one  1
    y_s51_i51_j36_k2  budget_K  -19.03
    y_s51_i52_j47_k0  rec_s51_edge_52_47_choose_one  1
    y_s51_i52_j47_k0  budget_K  -8.06
    y_s51_i52_j47_k1  rec_s51_edge_52_47_choose_one  1
    y_s51_i52_j47_k1  budget_K  3.6
    y_s51_i52_j47_k2  rec_s51_edge_52_47_choose_one  1
    y_s51_i52_j47_k2  budget_K  -1.3900000000000001e+00
    y_s51_i53_j43_k0  rec_s51_edge_53_43_choose_one  1
    y_s51_i53_j43_k0  budget_K  59.47
    y_s51_i53_j43_k1  rec_s51_edge_53_43_choose_one  1
    y_s51_i53_j43_k1  budget_K  10.05
    y_s51_i53_j43_k2  rec_s51_edge_53_43_choose_one  1
    y_s51_i53_j43_k2  budget_K  3.65
    y_s61_i0_j2_k0  rec_s61_edge_0_2_choose_one  1
    y_s61_i0_j2_k0  budget_K  3.43
    y_s61_i0_j2_k1  rec_s61_edge_0_2_choose_one  1
    y_s61_i0_j2_k1  budget_K  0.15
    y_s61_i0_j2_k2  rec_s61_edge_0_2_choose_one  1
    y_s61_i0_j2_k2  budget_K  -1.01
    y_s61_i1_j22_k0  rec_s61_edge_1_22_choose_one  1
    y_s61_i1_j22_k0  budget_K  -1.75
    y_s61_i1_j22_k1  rec_s61_edge_1_22_choose_one  1
    y_s61_i1_j22_k1  budget_K  -4.7
    y_s61_i1_j22_k2  rec_s61_edge_1_22_choose_one  1
    y_s61_i1_j22_k2  budget_K  -4.66
    y_s61_i2_j1_k0  rec_s61_edge_2_1_choose_one  1
    y_s61_i2_j1_k0  budget_K  -1.23
    y_s61_i2_j1_k1  rec_s61_edge_2_1_choose_one  1
    y_s61_i2_j1_k1  budget_K  -1.36
    y_s61_i2_j1_k2  rec_s61_edge_2_1_choose_one  1
    y_s61_i2_j1_k2  budget_K  -0.61
    y_s61_i3_j9_k0  rec_s61_edge_3_9_choose_one  1
    y_s61_i3_j9_k0  budget_K  0.12
    y_s61_i3_j9_k1  rec_s61_edge_3_9_choose_one  1
    y_s61_i3_j9_k1  budget_K  26.61
    y_s61_i3_j9_k2  rec_s61_edge_3_9_choose_one  1
    y_s61_i3_j9_k2  budget_K  -1.1950000000000001e+01
    y_s61_i4_j34_k0  rec_s61_edge_4_34_choose_one  1
    y_s61_i4_j34_k0  budget_K  -10.42
    y_s61_i4_j34_k1  rec_s61_edge_4_34_choose_one  1
    y_s61_i4_j34_k1  budget_K  -15.77
    y_s61_i4_j34_k2  rec_s61_edge_4_34_choose_one  1
    y_s61_i4_j34_k2  budget_K  -12.43
    y_s61_i5_j0_k0  rec_s61_edge_5_0_choose_one  1
    y_s61_i5_j0_k0  budget_K  1.46
    y_s61_i5_j0_k1  rec_s61_edge_5_0_choose_one  1
    y_s61_i5_j0_k1  budget_K  -0.22
    y_s61_i5_j0_k2  rec_s61_edge_5_0_choose_one  1
    y_s61_i5_j0_k2  budget_K  -3.7
    y_s61_i6_j52_k0  rec_s61_edge_6_52_choose_one  1
    y_s61_i6_j52_k0  budget_K  8.74
    y_s61_i6_j52_k1  rec_s61_edge_6_52_choose_one  1
    y_s61_i6_j52_k1  budget_K  1.9100000000000001e+00
    y_s61_i6_j52_k2  rec_s61_edge_6_52_choose_one  1
    y_s61_i6_j52_k2  budget_K  -8.66
    y_s61_i7_j3_k0  rec_s61_edge_7_3_choose_one  1
    y_s61_i7_j3_k0  budget_K  -2.79
    y_s61_i7_j3_k1  rec_s61_edge_7_3_choose_one  1
    y_s61_i7_j3_k1  budget_K  4.39
    y_s61_i7_j3_k2  rec_s61_edge_7_3_choose_one  1
    y_s61_i7_j3_k2  budget_K  0.28
    y_s61_i8_j10_k0  rec_s61_edge_8_10_choose_one  1
    y_s61_i8_j10_k0  budget_K  8.93
    y_s61_i8_j10_k1  rec_s61_edge_8_10_choose_one  1
    y_s61_i8_j10_k1  budget_K  -5.0200000000000005e+00
    y_s61_i8_j10_k2  rec_s61_edge_8_10_choose_one  1
    y_s61_i8_j10_k2  budget_K  -2.23
    y_s61_i9_j6_k0  rec_s61_edge_9_6_choose_one  1
    y_s61_i9_j6_k0  budget_K  0.68
    y_s61_i9_j6_k1  rec_s61_edge_9_6_choose_one  1
    y_s61_i9_j6_k1  budget_K  -4.61
    y_s61_i9_j6_k2  rec_s61_edge_9_6_choose_one  1
    y_s61_i9_j6_k2  budget_K  20.29
    y_s61_i10_j5_k0  rec_s61_edge_10_5_choose_one  1
    y_s61_i10_j5_k0  budget_K  10.38
    y_s61_i10_j5_k1  rec_s61_edge_10_5_choose_one  1
    y_s61_i10_j5_k1  budget_K  42.35
    y_s61_i10_j5_k2  rec_s61_edge_10_5_choose_one  1
    y_s61_i10_j5_k2  budget_K  8.93
    y_s61_i11_j8_k0  rec_s61_edge_11_8_choose_one  1
    y_s61_i11_j8_k0  budget_K  -2.84
    y_s61_i11_j8_k1  rec_s61_edge_11_8_choose_one  1
    y_s61_i11_j8_k1  budget_K  -3.48
    y_s61_i11_j8_k2  rec_s61_edge_11_8_choose_one  1
    y_s61_i11_j8_k2  budget_K  3.73
    y_s61_i12_j11_k0  rec_s61_edge_12_11_choose_one  1
    y_s61_i12_j11_k0  budget_K  -1.24
    y_s61_i12_j11_k1  rec_s61_edge_12_11_choose_one  1
    y_s61_i12_j11_k1  budget_K  -1.51
    y_s61_i12_j11_k2  rec_s61_edge_12_11_choose_one  1
    y_s61_i12_j11_k2  budget_K  1.17
    y_s61_i13_j14_k0  rec_s61_edge_13_14_choose_one  1
    y_s61_i13_j14_k0  budget_K  -4.64
    y_s61_i13_j14_k1  rec_s61_edge_13_14_choose_one  1
    y_s61_i13_j14_k1  budget_K  -4.48
    y_s61_i13_j14_k2  rec_s61_edge_13_14_choose_one  1
    y_s61_i13_j14_k2  budget_K  -3.88
    y_s61_i14_j12_k0  rec_s61_edge_14_12_choose_one  1
    y_s61_i14_j12_k0  budget_K  -2.18
    y_s61_i14_j12_k1  rec_s61_edge_14_12_choose_one  1
    y_s61_i14_j12_k1  budget_K  -1.57
    y_s61_i14_j12_k2  rec_s61_edge_14_12_choose_one  1
    y_s61_i14_j12_k2  budget_K  -9.2000000000000011e+00
    y_s61_i15_j13_k0  rec_s61_edge_15_13_choose_one  1
    y_s61_i15_j13_k0  budget_K  -1.0700000000000001e+01
    y_s61_i15_j13_k1  rec_s61_edge_15_13_choose_one  1
    y_s61_i15_j13_k1  budget_K  -5.04
    y_s61_i15_j13_k2  rec_s61_edge_15_13_choose_one  1
    y_s61_i15_j13_k2  budget_K  -13.31
    y_s61_i16_j17_k0  rec_s61_edge_16_17_choose_one  1
    y_s61_i16_j17_k0  budget_K  -5.18
    y_s61_i16_j17_k1  rec_s61_edge_16_17_choose_one  1
    y_s61_i16_j17_k1  budget_K  -4.42
    y_s61_i16_j17_k2  rec_s61_edge_16_17_choose_one  1
    y_s61_i16_j17_k2  budget_K  2.5490000000000002e+01
    y_s61_i17_j38_k0  rec_s61_edge_17_38_choose_one  1
    y_s61_i17_j38_k0  budget_K  -5.11
    y_s61_i17_j38_k1  rec_s61_edge_17_38_choose_one  1
    y_s61_i17_j38_k1  budget_K  -5.17
    y_s61_i17_j38_k2  rec_s61_edge_17_38_choose_one  1
    y_s61_i17_j38_k2  budget_K  23.48
    y_s61_i18_j20_k0  rec_s61_edge_18_20_choose_one  1
    y_s61_i18_j20_k0  budget_K  -9.5000000000000007e-01
    y_s61_i18_j20_k1  rec_s61_edge_18_20_choose_one  1
    y_s61_i18_j20_k1  budget_K  -2.63
    y_s61_i18_j20_k2  rec_s61_edge_18_20_choose_one  1
    y_s61_i18_j20_k2  budget_K  -3.44
    y_s61_i19_j45_k0  rec_s61_edge_19_45_choose_one  1
    y_s61_i19_j45_k0  budget_K  -1.9100000000000001e+00
    y_s61_i19_j45_k1  rec_s61_edge_19_45_choose_one  1
    y_s61_i19_j45_k1  budget_K  -1.71
    y_s61_i19_j45_k2  rec_s61_edge_19_45_choose_one  1
    y_s61_i19_j45_k2  budget_K  -2.2
    y_s61_i20_j16_k0  rec_s61_edge_20_16_choose_one  1
    y_s61_i20_j16_k0  budget_K  -4.8
    y_s61_i20_j16_k1  rec_s61_edge_20_16_choose_one  1
    y_s61_i20_j16_k1  budget_K  -9.52
    y_s61_i20_j16_k2  rec_s61_edge_20_16_choose_one  1
    y_s61_i20_j16_k2  budget_K  35.62
    y_s61_i21_j24_k0  rec_s61_edge_21_24_choose_one  1
    y_s61_i21_j24_k0  budget_K  -3.71
    y_s61_i21_j24_k1  rec_s61_edge_21_24_choose_one  1
    y_s61_i21_j24_k1  budget_K  -3.31
    y_s61_i21_j24_k2  rec_s61_edge_21_24_choose_one  1
    y_s61_i21_j24_k2  budget_K  -3.27
    y_s61_i22_j21_k0  rec_s61_edge_22_21_choose_one  1
    y_s61_i22_j21_k0  budget_K  -3.47
    y_s61_i22_j21_k1  rec_s61_edge_22_21_choose_one  1
    y_s61_i22_j21_k1  budget_K  -2.6
    y_s61_i22_j21_k2  rec_s61_edge_22_21_choose_one  1
    y_s61_i22_j21_k2  budget_K  -5.5
    y_s61_i23_j46_k0  rec_s61_edge_23_46_choose_one  1
    y_s61_i23_j46_k0  budget_K  -1.3530000000000001e+01
    y_s61_i23_j46_k1  rec_s61_edge_23_46_choose_one  1
    y_s61_i23_j46_k1  budget_K  7.3100000000000005e+00
    y_s61_i23_j46_k2  rec_s61_edge_23_46_choose_one  1
    y_s61_i23_j46_k2  budget_K  92.48
    y_s61_i24_j23_k0  rec_s61_edge_24_23_choose_one  1
    y_s61_i24_j23_k0  budget_K  -3.16
    y_s61_i24_j23_k1  rec_s61_edge_24_23_choose_one  1
    y_s61_i24_j23_k1  budget_K  -3.34
    y_s61_i24_j23_k2  rec_s61_edge_24_23_choose_one  1
    y_s61_i24_j23_k2  budget_K  2.84
    y_s61_i25_j31_k0  rec_s61_edge_25_31_choose_one  1
    y_s61_i25_j31_k0  budget_K  -5.25
    y_s61_i25_j31_k1  rec_s61_edge_25_31_choose_one  1
    y_s61_i25_j31_k1  budget_K  -5.39
    y_s61_i25_j31_k2  rec_s61_edge_25_31_choose_one  1
    y_s61_i25_j31_k2  budget_K  -6.11
    y_s61_i26_j27_k0  rec_s61_edge_26_27_choose_one  1
    y_s61_i26_j27_k0  budget_K  -3.84
    y_s61_i26_j27_k1  rec_s61_edge_26_27_choose_one  1
    y_s61_i26_j27_k1  budget_K  -2.16
    y_s61_i26_j27_k2  rec_s61_edge_26_27_choose_one  1
    y_s61_i26_j27_k2  budget_K  -4.2
    y_s61_i27_j28_k0  rec_s61_edge_27_28_choose_one  1
    y_s61_i27_j28_k0  budget_K  -8.3000000000000007e-01
    y_s61_i27_j28_k1  rec_s61_edge_27_28_choose_one  1
    y_s61_i27_j28_k1  budget_K  11.52
    y_s61_i27_j28_k2  rec_s61_edge_27_28_choose_one  1
    y_s61_i27_j28_k2  budget_K  24.27
    y_s61_i28_j25_k0  rec_s61_edge_28_25_choose_one  1
    y_s61_i28_j25_k0  budget_K  -3.2600000000000002e+00
    y_s61_i28_j25_k1  rec_s61_edge_28_25_choose_one  1
    y_s61_i28_j25_k1  budget_K  -3.61
    y_s61_i28_j25_k2  rec_s61_edge_28_25_choose_one  1
    y_s61_i28_j25_k2  budget_K  -3.23
    y_s61_i29_j7_k0  rec_s61_edge_29_7_choose_one  1
    y_s61_i29_j7_k0  budget_K  28.21
    y_s61_i29_j7_k1  rec_s61_edge_29_7_choose_one  1
    y_s61_i29_j7_k1  budget_K  -7.74
    y_s61_i29_j7_k2  rec_s61_edge_29_7_choose_one  1
    y_s61_i29_j7_k2  budget_K  -8.3
    y_s61_i30_j29_k0  rec_s61_edge_30_29_choose_one  1
    y_s61_i30_j29_k0  budget_K  -0.67
    y_s61_i30_j29_k1  rec_s61_edge_30_29_choose_one  1
    y_s61_i30_j29_k1  budget_K  -3.24
    y_s61_i30_j29_k2  rec_s61_edge_30_29_choose_one  1
    y_s61_i30_j29_k2  budget_K  -2.59
    y_s61_i31_j30_k0  rec_s61_edge_31_30_choose_one  1
    y_s61_i31_j30_k0  budget_K  7.0000000000000007e-01
    y_s61_i31_j30_k1  rec_s61_edge_31_30_choose_one  1
    y_s61_i31_j30_k1  budget_K  0.54
    y_s61_i31_j30_k2  rec_s61_edge_31_30_choose_one  1
    y_s61_i31_j30_k2  budget_K  10.24
    y_s61_i32_j40_k0  rec_s61_edge_32_40_choose_one  1
    y_s61_i32_j40_k0  budget_K  -32.29
    y_s61_i32_j40_k1  rec_s61_edge_32_40_choose_one  1
    y_s61_i32_j40_k1  budget_K  -28.76
    y_s61_i32_j40_k2  rec_s61_edge_32_40_choose_one  1
    y_s61_i32_j40_k2  budget_K  69.7
    y_s61_i33_j35_k0  rec_s61_edge_33_35_choose_one  1
    y_s61_i33_j35_k0  budget_K  -5.45
    y_s61_i33_j35_k1  rec_s61_edge_33_35_choose_one  1
    y_s61_i33_j35_k1  budget_K  -1.6
    y_s61_i33_j35_k2  rec_s61_edge_33_35_choose_one  1
    y_s61_i33_j35_k2  budget_K  -5.88
    y_s61_i34_j33_k0  rec_s61_edge_34_33_choose_one  1
    y_s61_i34_j33_k0  budget_K  -13.59
    y_s61_i34_j33_k1  rec_s61_edge_34_33_choose_one  1
    y_s61_i34_j33_k1  budget_K  -13.18
    y_s61_i34_j33_k2  rec_s61_edge_34_33_choose_one  1
    y_s61_i34_j33_k2  budget_K  -13.64
    y_s61_i35_j32_k0  rec_s61_edge_35_32_choose_one  1
    y_s61_i35_j32_k0  budget_K  -7.88
    y_s61_i35_j32_k1  rec_s61_edge_35_32_choose_one  1
    y_s61_i35_j32_k1  budget_K  -8.63
    y_s61_i35_j32_k2  rec_s61_edge_35_32_choose_one  1
    y_s61_i35_j32_k2  budget_K  8.2000000000000006e-01
    y_s61_i36_j49_k0  rec_s61_edge_36_49_choose_one  1
    y_s61_i36_j49_k0  budget_K  -3.02
    y_s61_i36_j49_k1  rec_s61_edge_36_49_choose_one  1
    y_s61_i36_j49_k1  budget_K  0.44
    y_s61_i36_j49_k2  rec_s61_edge_36_49_choose_one  1
    y_s61_i36_j49_k2  budget_K  -2.12
    y_s61_i37_j39_k0  rec_s61_edge_37_39_choose_one  1
    y_s61_i37_j39_k0  budget_K  -27.75
    y_s61_i37_j39_k1  rec_s61_edge_37_39_choose_one  1
    y_s61_i37_j39_k1  budget_K  -32.86
    y_s61_i37_j39_k2  rec_s61_edge_37_39_choose_one  1
    y_s61_i37_j39_k2  budget_K  127.04
    y_s61_i38_j15_k0  rec_s61_edge_38_15_choose_one  1
    y_s61_i38_j15_k0  budget_K  -4.32
    y_s61_i38_j15_k1  rec_s61_edge_38_15_choose_one  1
    y_s61_i38_j15_k1  budget_K  3.0100000000000002e+00
    y_s61_i38_j15_k2  rec_s61_edge_38_15_choose_one  1
    y_s61_i38_j15_k2  budget_K  -5.11
    y_s61_i39_j53_k0  rec_s61_edge_39_53_choose_one  1
    y_s61_i39_j53_k0  budget_K  -37.36
    y_s61_i39_j53_k1  rec_s61_edge_39_53_choose_one  1
    y_s61_i39_j53_k1  budget_K  -29.45
    y_s61_i39_j53_k2  rec_s61_edge_39_53_choose_one  1
    y_s61_i39_j53_k2  budget_K  -35.2
    y_s61_i40_j37_k0  rec_s61_edge_40_37_choose_one  1
    y_s61_i40_j37_k0  budget_K  -2.89
    y_s61_i40_j37_k1  rec_s61_edge_40_37_choose_one  1
    y_s61_i40_j37_k1  budget_K  -30.98
    y_s61_i40_j37_k2  rec_s61_edge_40_37_choose_one  1
    y_s61_i40_j37_k2  budget_K  -2.7900000000000002e+01
    y_s61_i41_j4_k0  rec_s61_edge_41_4_choose_one  1
    y_s61_i41_j4_k0  budget_K  -4.0600000000000005e+00
    y_s61_i41_j4_k1  rec_s61_edge_41_4_choose_one  1
    y_s61_i41_j4_k1  budget_K  -3.73
    y_s61_i41_j4_k2  rec_s61_edge_41_4_choose_one  1
    y_s61_i41_j4_k2  budget_K  -3.95
    y_s61_i42_j44_k0  rec_s61_edge_42_44_choose_one  1
    y_s61_i42_j44_k0  budget_K  -2.3000000000000003e+00
    y_s61_i42_j44_k1  rec_s61_edge_42_44_choose_one  1
    y_s61_i42_j44_k1  budget_K  -6.48
    y_s61_i42_j44_k2  rec_s61_edge_42_44_choose_one  1
    y_s61_i42_j44_k2  budget_K  -6.91
    y_s61_i43_j19_k0  rec_s61_edge_43_19_choose_one  1
    y_s61_i43_j19_k0  budget_K  23.71
    y_s61_i43_j19_k1  rec_s61_edge_43_19_choose_one  1
    y_s61_i43_j19_k1  budget_K  -15.35
    y_s61_i43_j19_k2  rec_s61_edge_43_19_choose_one  1
    y_s61_i43_j19_k2  budget_K  -16.09
    y_s61_i44_j50_k0  rec_s61_edge_44_50_choose_one  1
    y_s61_i44_j50_k0  budget_K  -27.7
    y_s61_i44_j50_k1  rec_s61_edge_44_50_choose_one  1
    y_s61_i44_j50_k1  budget_K  -2.0330000000000002e+01
    y_s61_i44_j50_k2  rec_s61_edge_44_50_choose_one  1
    y_s61_i44_j50_k2  budget_K  -34.82
    y_s61_i45_j18_k0  rec_s61_edge_45_18_choose_one  1
    y_s61_i45_j18_k0  budget_K  -0.91
    y_s61_i45_j18_k1  rec_s61_edge_45_18_choose_one  1
    y_s61_i45_j18_k1  budget_K  12.24
    y_s61_i45_j18_k2  rec_s61_edge_45_18_choose_one  1
    y_s61_i45_j18_k2  budget_K  -6.91
    y_s61_i46_j42_k0  rec_s61_edge_46_42_choose_one  1
    y_s61_i46_j42_k0  budget_K  -8.51
    y_s61_i46_j42_k1  rec_s61_edge_46_42_choose_one  1
    y_s61_i46_j42_k1  budget_K  -8.8700000000000010e+00
    y_s61_i46_j42_k2  rec_s61_edge_46_42_choose_one  1
    y_s61_i46_j42_k2  budget_K  8.77
    y_s61_i47_j41_k0  rec_s61_edge_47_41_choose_one  1
    y_s61_i47_j41_k0  budget_K  5.03
    y_s61_i47_j41_k1  rec_s61_edge_47_41_choose_one  1
    y_s61_i47_j41_k1  budget_K  8.46
    y_s61_i47_j41_k2  rec_s61_edge_47_41_choose_one  1
    y_s61_i47_j41_k2  budget_K  14.08
    y_s61_i48_j51_k0  rec_s61_edge_48_51_choose_one  1
    y_s61_i48_j51_k0  budget_K  -7.8900000000000006e+00
    y_s61_i48_j51_k1  rec_s61_edge_48_51_choose_one  1
    y_s61_i48_j51_k1  budget_K  13.91
    y_s61_i48_j51_k2  rec_s61_edge_48_51_choose_one  1
    y_s61_i48_j51_k2  budget_K  -6.83
    y_s61_i49_j26_k0  rec_s61_edge_49_26_choose_one  1
    y_s61_i49_j26_k0  budget_K  -0.62
    y_s61_i49_j26_k1  rec_s61_edge_49_26_choose_one  1
    y_s61_i49_j26_k1  budget_K  -1.41
    y_s61_i49_j26_k2  rec_s61_edge_49_26_choose_one  1
    y_s61_i49_j26_k2  budget_K  -0.55
    y_s61_i50_j48_k0  rec_s61_edge_50_48_choose_one  1
    y_s61_i50_j48_k0  budget_K  -0.22
    y_s61_i50_j48_k1  rec_s61_edge_50_48_choose_one  1
    y_s61_i50_j48_k1  budget_K  1.5620000000000001e+01
    y_s61_i50_j48_k2  rec_s61_edge_50_48_choose_one  1
    y_s61_i50_j48_k2  budget_K  39.19
    y_s61_i51_j36_k0  rec_s61_edge_51_36_choose_one  1
    y_s61_i51_j36_k0  budget_K  -14.76
    y_s61_i51_j36_k1  rec_s61_edge_51_36_choose_one  1
    y_s61_i51_j36_k1  budget_K  -15.6
    y_s61_i51_j36_k2  rec_s61_edge_51_36_choose_one  1
    y_s61_i51_j36_k2  budget_K  -24.37
    y_s61_i52_j47_k0  rec_s61_edge_52_47_choose_one  1
    y_s61_i52_j47_k0  budget_K  -3.96
    y_s61_i52_j47_k1  rec_s61_edge_52_47_choose_one  1
    y_s61_i52_j47_k1  budget_K  -9.27
    y_s61_i52_j47_k2  rec_s61_edge_52_47_choose_one  1
    y_s61_i52_j47_k2  budget_K  -2.65
    y_s61_i53_j43_k0  rec_s61_edge_53_43_choose_one  1
    y_s61_i53_j43_k0  budget_K  -6.86
    y_s61_i53_j43_k1  rec_s61_edge_53_43_choose_one  1
    y_s61_i53_j43_k1  budget_K  17.84
    y_s61_i53_j43_k2  rec_s61_edge_53_43_choose_one  1
    y_s61_i53_j43_k2  budget_K  -1.49
    y_s81_i0_j2_k0  rec_s81_edge_0_2_choose_one  1
    y_s81_i0_j2_k0  budget_K  1.1040000000000001e+01
    y_s81_i0_j2_k1  rec_s81_edge_0_2_choose_one  1
    y_s81_i0_j2_k1  budget_K  -0.61
    y_s81_i0_j2_k2  rec_s81_edge_0_2_choose_one  1
    y_s81_i0_j2_k2  budget_K  -0.78
    y_s81_i1_j22_k0  rec_s81_edge_1_22_choose_one  1
    y_s81_i1_j22_k0  budget_K  -5.71
    y_s81_i1_j22_k1  rec_s81_edge_1_22_choose_one  1
    y_s81_i1_j22_k1  budget_K  -5.59
    y_s81_i1_j22_k2  rec_s81_edge_1_22_choose_one  1
    y_s81_i1_j22_k2  budget_K  -2.93
    y_s81_i2_j1_k0  rec_s81_edge_2_1_choose_one  1
    y_s81_i2_j1_k0  budget_K  -1.33
    y_s81_i2_j1_k1  rec_s81_edge_2_1_choose_one  1
    y_s81_i2_j1_k1  budget_K  -1.33
    y_s81_i2_j1_k2  rec_s81_edge_2_1_choose_one  1
    y_s81_i2_j1_k2  budget_K  -0.87
    y_s81_i3_j9_k0  rec_s81_edge_3_9_choose_one  1
    y_s81_i3_j9_k0  budget_K  -1.0790000000000001e+01
    y_s81_i3_j9_k1  rec_s81_edge_3_9_choose_one  1
    y_s81_i3_j9_k1  budget_K  50.08
    y_s81_i3_j9_k2  rec_s81_edge_3_9_choose_one  1
    y_s81_i3_j9_k2  budget_K  -10.17
    y_s81_i4_j34_k0  rec_s81_edge_4_34_choose_one  1
    y_s81_i4_j34_k0  budget_K  -5.62
    y_s81_i4_j34_k1  rec_s81_edge_4_34_choose_one  1
    y_s81_i4_j34_k1  budget_K  -13.98
    y_s81_i4_j34_k2  rec_s81_edge_4_34_choose_one  1
    y_s81_i4_j34_k2  budget_K  -13.49
    y_s81_i5_j0_k0  rec_s81_edge_5_0_choose_one  1
    y_s81_i5_j0_k0  budget_K  99.72
    y_s81_i5_j0_k1  rec_s81_edge_5_0_choose_one  1
    y_s81_i5_j0_k1  budget_K  7.46
    y_s81_i5_j0_k2  rec_s81_edge_5_0_choose_one  1
    y_s81_i5_j0_k2  budget_K  9.7820000000000007e+01
    y_s81_i6_j52_k0  rec_s81_edge_6_52_choose_one  1
    y_s81_i6_j52_k0  budget_K  -6.8
    y_s81_i6_j52_k1  rec_s81_edge_6_52_choose_one  1
    y_s81_i6_j52_k1  budget_K  2
    y_s81_i6_j52_k2  rec_s81_edge_6_52_choose_one  1
    y_s81_i6_j52_k2  budget_K  -9.91
    y_s81_i7_j3_k0  rec_s81_edge_7_3_choose_one  1
    y_s81_i7_j3_k0  budget_K  -3.2600000000000002e+00
    y_s81_i7_j3_k1  rec_s81_edge_7_3_choose_one  1
    y_s81_i7_j3_k1  budget_K  -2.77
    y_s81_i7_j3_k2  rec_s81_edge_7_3_choose_one  1
    y_s81_i7_j3_k2  budget_K  -1.62
    y_s81_i8_j10_k0  rec_s81_edge_8_10_choose_one  1
    y_s81_i8_j10_k0  budget_K  -1.54
    y_s81_i8_j10_k1  rec_s81_edge_8_10_choose_one  1
    y_s81_i8_j10_k1  budget_K  -4.87
    y_s81_i8_j10_k2  rec_s81_edge_8_10_choose_one  1
    y_s81_i8_j10_k2  budget_K  -1.98
    y_s81_i9_j6_k0  rec_s81_edge_9_6_choose_one  1
    y_s81_i9_j6_k0  budget_K  -9.31
    y_s81_i9_j6_k1  rec_s81_edge_9_6_choose_one  1
    y_s81_i9_j6_k1  budget_K  -8.58
    y_s81_i9_j6_k2  rec_s81_edge_9_6_choose_one  1
    y_s81_i9_j6_k2  budget_K  -9.41
    y_s81_i10_j5_k0  rec_s81_edge_10_5_choose_one  1
    y_s81_i10_j5_k0  budget_K  1.79
    y_s81_i10_j5_k1  rec_s81_edge_10_5_choose_one  1
    y_s81_i10_j5_k1  budget_K  18.37
    y_s81_i10_j5_k2  rec_s81_edge_10_5_choose_one  1
    y_s81_i10_j5_k2  budget_K  7.2700000000000005e+00
    y_s81_i11_j8_k0  rec_s81_edge_11_8_choose_one  1
    y_s81_i11_j8_k0  budget_K  -4.21
    y_s81_i11_j8_k1  rec_s81_edge_11_8_choose_one  1
    y_s81_i11_j8_k1  budget_K  -3.66
    y_s81_i11_j8_k2  rec_s81_edge_11_8_choose_one  1
    y_s81_i11_j8_k2  budget_K  -3.69
    y_s81_i12_j11_k0  rec_s81_edge_12_11_choose_one  1
    y_s81_i12_j11_k0  budget_K  -1.94
    y_s81_i12_j11_k1  rec_s81_edge_12_11_choose_one  1
    y_s81_i12_j11_k1  budget_K  -1.68
    y_s81_i12_j11_k2  rec_s81_edge_12_11_choose_one  1
    y_s81_i12_j11_k2  budget_K  -9.4000000000000006e-01
    y_s81_i13_j14_k0  rec_s81_edge_13_14_choose_one  1
    y_s81_i13_j14_k0  budget_K  -4.75
    y_s81_i13_j14_k1  rec_s81_edge_13_14_choose_one  1
    y_s81_i13_j14_k1  budget_K  -5.42
    y_s81_i13_j14_k2  rec_s81_edge_13_14_choose_one  1
    y_s81_i13_j14_k2  budget_K  -1.95
    y_s81_i14_j12_k0  rec_s81_edge_14_12_choose_one  1
    y_s81_i14_j12_k0  budget_K  3.91
    y_s81_i14_j12_k1  rec_s81_edge_14_12_choose_one  1
    y_s81_i14_j12_k1  budget_K  -6.46
    y_s81_i14_j12_k2  rec_s81_edge_14_12_choose_one  1
    y_s81_i14_j12_k2  budget_K  -10.91
    y_s81_i15_j13_k0  rec_s81_edge_15_13_choose_one  1
    y_s81_i15_j13_k0  budget_K  29.72
    y_s81_i15_j13_k1  rec_s81_edge_15_13_choose_one  1
    y_s81_i15_j13_k1  budget_K  -15.27
    y_s81_i15_j13_k2  rec_s81_edge_15_13_choose_one  1
    y_s81_i15_j13_k2  budget_K  -10.58
    y_s81_i16_j17_k0  rec_s81_edge_16_17_choose_one  1
    y_s81_i16_j17_k0  budget_K  -5.13
    y_s81_i16_j17_k1  rec_s81_edge_16_17_choose_one  1
    y_s81_i16_j17_k1  budget_K  -3.44
    y_s81_i16_j17_k2  rec_s81_edge_16_17_choose_one  1
    y_s81_i16_j17_k2  budget_K  23.41
    y_s81_i17_j38_k0  rec_s81_edge_17_38_choose_one  1
    y_s81_i17_j38_k0  budget_K  10.3
    y_s81_i17_j38_k1  rec_s81_edge_17_38_choose_one  1
    y_s81_i17_j38_k1  budget_K  2.89
    y_s81_i17_j38_k2  rec_s81_edge_17_38_choose_one  1
    y_s81_i17_j38_k2  budget_K  -5.04
    y_s81_i18_j20_k0  rec_s81_edge_18_20_choose_one  1
    y_s81_i18_j20_k0  budget_K  -0.02
    y_s81_i18_j20_k1  rec_s81_edge_18_20_choose_one  1
    y_s81_i18_j20_k1  budget_K  0.19
    y_s81_i18_j20_k2  rec_s81_edge_18_20_choose_one  1
    y_s81_i18_j20_k2  budget_K  0.28
    y_s81_i19_j45_k0  rec_s81_edge_19_45_choose_one  1
    y_s81_i19_j45_k0  budget_K  -0.63
    y_s81_i19_j45_k1  rec_s81_edge_19_45_choose_one  1
    y_s81_i19_j45_k1  budget_K  -2.0300000000000002e+00
    y_s81_i19_j45_k2  rec_s81_edge_19_45_choose_one  1
    y_s81_i19_j45_k2  budget_K  16.09
    y_s81_i20_j16_k0  rec_s81_edge_20_16_choose_one  1
    y_s81_i20_j16_k0  budget_K  -8.27
    y_s81_i20_j16_k1  rec_s81_edge_20_16_choose_one  1
    y_s81_i20_j16_k1  budget_K  -7.69
    y_s81_i20_j16_k2  rec_s81_edge_20_16_choose_one  1
    y_s81_i20_j16_k2  budget_K  -7.05
    y_s81_i21_j24_k0  rec_s81_edge_21_24_choose_one  1
    y_s81_i21_j24_k0  budget_K  4.5600000000000005e+00
    y_s81_i21_j24_k1  rec_s81_edge_21_24_choose_one  1
    y_s81_i21_j24_k1  budget_K  -0.75
    y_s81_i21_j24_k2  rec_s81_edge_21_24_choose_one  1
    y_s81_i21_j24_k2  budget_K  -1.53
    y_s81_i22_j21_k0  rec_s81_edge_22_21_choose_one  1
    y_s81_i22_j21_k0  budget_K  4.54
    y_s81_i22_j21_k1  rec_s81_edge_22_21_choose_one  1
    y_s81_i22_j21_k1  budget_K  14.24
    y_s81_i22_j21_k2  rec_s81_edge_22_21_choose_one  1
    y_s81_i22_j21_k2  budget_K  -6.8500000000000005e+00
    y_s81_i23_j46_k0  rec_s81_edge_23_46_choose_one  1
    y_s81_i23_j46_k0  budget_K  -12.13
    y_s81_i23_j46_k1  rec_s81_edge_23_46_choose_one  1
    y_s81_i23_j46_k1  budget_K  9.33
    y_s81_i23_j46_k2  rec_s81_edge_23_46_choose_one  1
    y_s81_i23_j46_k2  budget_K  13.14
    y_s81_i24_j23_k0  rec_s81_edge_24_23_choose_one  1
    y_s81_i24_j23_k0  budget_K  -2.63
    y_s81_i24_j23_k1  rec_s81_edge_24_23_choose_one  1
    y_s81_i24_j23_k1  budget_K  -2.74
    y_s81_i24_j23_k2  rec_s81_edge_24_23_choose_one  1
    y_s81_i24_j23_k2  budget_K  -2.5
    y_s81_i25_j31_k0  rec_s81_edge_25_31_choose_one  1
    y_s81_i25_j31_k0  budget_K  -1.31
    y_s81_i25_j31_k1  rec_s81_edge_25_31_choose_one  1
    y_s81_i25_j31_k1  budget_K  -0.98
    y_s81_i25_j31_k2  rec_s81_edge_25_31_choose_one  1
    y_s81_i25_j31_k2  budget_K  -0.97
    y_s81_i26_j27_k0  rec_s81_edge_26_27_choose_one  1
    y_s81_i26_j27_k0  budget_K  -3.38
    y_s81_i26_j27_k1  rec_s81_edge_26_27_choose_one  1
    y_s81_i26_j27_k1  budget_K  -2.48
    y_s81_i26_j27_k2  rec_s81_edge_26_27_choose_one  1
    y_s81_i26_j27_k2  budget_K  -4.18
    y_s81_i27_j28_k0  rec_s81_edge_27_28_choose_one  1
    y_s81_i27_j28_k0  budget_K  -3.5100000000000002e+00
    y_s81_i27_j28_k1  rec_s81_edge_27_28_choose_one  1
    y_s81_i27_j28_k1  budget_K  -7.3500000000000005e+00
    y_s81_i27_j28_k2  rec_s81_edge_27_28_choose_one  1
    y_s81_i27_j28_k2  budget_K  -8.31
    y_s81_i28_j25_k0  rec_s81_edge_28_25_choose_one  1
    y_s81_i28_j25_k0  budget_K  -1.81
    y_s81_i28_j25_k1  rec_s81_edge_28_25_choose_one  1
    y_s81_i28_j25_k1  budget_K  -4.71
    y_s81_i28_j25_k2  rec_s81_edge_28_25_choose_one  1
    y_s81_i28_j25_k2  budget_K  -6.33
    y_s81_i29_j7_k0  rec_s81_edge_29_7_choose_one  1
    y_s81_i29_j7_k0  budget_K  -3.39
    y_s81_i29_j7_k1  rec_s81_edge_29_7_choose_one  1
    y_s81_i29_j7_k1  budget_K  -5.15
    y_s81_i29_j7_k2  rec_s81_edge_29_7_choose_one  1
    y_s81_i29_j7_k2  budget_K  -5.98
    y_s81_i30_j29_k0  rec_s81_edge_30_29_choose_one  1
    y_s81_i30_j29_k0  budget_K  -3.1
    y_s81_i30_j29_k1  rec_s81_edge_30_29_choose_one  1
    y_s81_i30_j29_k1  budget_K  -2.12
    y_s81_i30_j29_k2  rec_s81_edge_30_29_choose_one  1
    y_s81_i30_j29_k2  budget_K  16.53
    y_s81_i31_j30_k0  rec_s81_edge_31_30_choose_one  1
    y_s81_i31_j30_k0  budget_K  0.07
    y_s81_i31_j30_k1  rec_s81_edge_31_30_choose_one  1
    y_s81_i31_j30_k1  budget_K  -3.16
    y_s81_i31_j30_k2  rec_s81_edge_31_30_choose_one  1
    y_s81_i31_j30_k2  budget_K  8.85
    y_s81_i32_j40_k0  rec_s81_edge_32_40_choose_one  1
    y_s81_i32_j40_k0  budget_K  -22.06
    y_s81_i32_j40_k1  rec_s81_edge_32_40_choose_one  1
    y_s81_i32_j40_k1  budget_K  -32.7
    y_s81_i32_j40_k2  rec_s81_edge_32_40_choose_one  1
    y_s81_i32_j40_k2  budget_K  -24.38
    y_s81_i33_j35_k0  rec_s81_edge_33_35_choose_one  1
    y_s81_i33_j35_k0  budget_K  7.38
    y_s81_i33_j35_k1  rec_s81_edge_33_35_choose_one  1
    y_s81_i33_j35_k1  budget_K  -6.99
    y_s81_i33_j35_k2  rec_s81_edge_33_35_choose_one  1
    y_s81_i33_j35_k2  budget_K  -6.08
    y_s81_i34_j33_k0  rec_s81_edge_34_33_choose_one  1
    y_s81_i34_j33_k0  budget_K  -13.6
    y_s81_i34_j33_k1  rec_s81_edge_34_33_choose_one  1
    y_s81_i34_j33_k1  budget_K  -14.08
    y_s81_i34_j33_k2  rec_s81_edge_34_33_choose_one  1
    y_s81_i34_j33_k2  budget_K  -5.7700000000000005e+00
    y_s81_i35_j32_k0  rec_s81_edge_35_32_choose_one  1
    y_s81_i35_j32_k0  budget_K  -1.1620000000000001e+01
    y_s81_i35_j32_k1  rec_s81_edge_35_32_choose_one  1
    y_s81_i35_j32_k1  budget_K  28.64
    y_s81_i35_j32_k2  rec_s81_edge_35_32_choose_one  1
    y_s81_i35_j32_k2  budget_K  36.12
    y_s81_i36_j49_k0  rec_s81_edge_36_49_choose_one  1
    y_s81_i36_j49_k0  budget_K  -0.62
    y_s81_i36_j49_k1  rec_s81_edge_36_49_choose_one  1
    y_s81_i36_j49_k1  budget_K  9.76
    y_s81_i36_j49_k2  rec_s81_edge_36_49_choose_one  1
    y_s81_i36_j49_k2  budget_K  -2.08
    y_s81_i37_j39_k0  rec_s81_edge_37_39_choose_one  1
    y_s81_i37_j39_k0  budget_K  -2.3580000000000002e+01
    y_s81_i37_j39_k1  rec_s81_edge_37_39_choose_one  1
    y_s81_i37_j39_k1  budget_K  -7.84
    y_s81_i37_j39_k2  rec_s81_edge_37_39_choose_one  1
    y_s81_i37_j39_k2  budget_K  -18.86
    y_s81_i38_j15_k0  rec_s81_edge_38_15_choose_one  1
    y_s81_i38_j15_k0  budget_K  -4.58
    y_s81_i38_j15_k1  rec_s81_edge_38_15_choose_one  1
    y_s81_i38_j15_k1  budget_K  0.59
    y_s81_i38_j15_k2  rec_s81_edge_38_15_choose_one  1
    y_s81_i38_j15_k2  budget_K  14.27
    y_s81_i39_j53_k0  rec_s81_edge_39_53_choose_one  1
    y_s81_i39_j53_k0  budget_K  -32.4
    y_s81_i39_j53_k1  rec_s81_edge_39_53_choose_one  1
    y_s81_i39_j53_k1  budget_K  -13.06
    y_s81_i39_j53_k2  rec_s81_edge_39_53_choose_one  1
    y_s81_i39_j53_k2  budget_K  -15.8
    y_s81_i40_j37_k0  rec_s81_edge_40_37_choose_one  1
    y_s81_i40_j37_k0  budget_K  1.3442000000000002e+02
    y_s81_i40_j37_k1  rec_s81_edge_40_37_choose_one  1
    y_s81_i40_j37_k1  budget_K  -17.51
    y_s81_i40_j37_k2  rec_s81_edge_40_37_choose_one  1
    y_s81_i40_j37_k2  budget_K  -30.44
    y_s81_i41_j4_k0  rec_s81_edge_41_4_choose_one  1
    y_s81_i41_j4_k0  budget_K  -1.6
    y_s81_i41_j4_k1  rec_s81_edge_41_4_choose_one  1
    y_s81_i41_j4_k1  budget_K  8.34
    y_s81_i41_j4_k2  rec_s81_edge_41_4_choose_one  1
    y_s81_i41_j4_k2  budget_K  12.85
    y_s81_i42_j44_k0  rec_s81_edge_42_44_choose_one  1
    y_s81_i42_j44_k0  budget_K  24.93
    y_s81_i42_j44_k1  rec_s81_edge_42_44_choose_one  1
    y_s81_i42_j44_k1  budget_K  -6.69
    y_s81_i42_j44_k2  rec_s81_edge_42_44_choose_one  1
    y_s81_i42_j44_k2  budget_K  6.1400000000000006e+00
    y_s81_i43_j19_k0  rec_s81_edge_43_19_choose_one  1
    y_s81_i43_j19_k0  budget_K  58.84
    y_s81_i43_j19_k1  rec_s81_edge_43_19_choose_one  1
    y_s81_i43_j19_k1  budget_K  -10.18
    y_s81_i43_j19_k2  rec_s81_edge_43_19_choose_one  1
    y_s81_i43_j19_k2  budget_K  40.46
    y_s81_i44_j50_k0  rec_s81_edge_44_50_choose_one  1
    y_s81_i44_j50_k0  budget_K  -32.02
    y_s81_i44_j50_k1  rec_s81_edge_44_50_choose_one  1
    y_s81_i44_j50_k1  budget_K  -2.8330000000000002e+01
    y_s81_i44_j50_k2  rec_s81_edge_44_50_choose_one  1
    y_s81_i44_j50_k2  budget_K  -31.8
    y_s81_i45_j18_k0  rec_s81_edge_45_18_choose_one  1
    y_s81_i45_j18_k0  budget_K  -4.97
    y_s81_i45_j18_k1  rec_s81_edge_45_18_choose_one  1
    y_s81_i45_j18_k1  budget_K  -3.99
    y_s81_i45_j18_k2  rec_s81_edge_45_18_choose_one  1
    y_s81_i45_j18_k2  budget_K  -0.14
    y_s81_i46_j42_k0  rec_s81_edge_46_42_choose_one  1
    y_s81_i46_j42_k0  budget_K  -8.35
    y_s81_i46_j42_k1  rec_s81_edge_46_42_choose_one  1
    y_s81_i46_j42_k1  budget_K  -2.85
    y_s81_i46_j42_k2  rec_s81_edge_46_42_choose_one  1
    y_s81_i46_j42_k2  budget_K  80.58
    y_s81_i47_j41_k0  rec_s81_edge_47_41_choose_one  1
    y_s81_i47_j41_k0  budget_K  -12.84
    y_s81_i47_j41_k1  rec_s81_edge_47_41_choose_one  1
    y_s81_i47_j41_k1  budget_K  -12.48
    y_s81_i47_j41_k2  rec_s81_edge_47_41_choose_one  1
    y_s81_i47_j41_k2  budget_K  -12.64
    y_s81_i48_j51_k0  rec_s81_edge_48_51_choose_one  1
    y_s81_i48_j51_k0  budget_K  -1.04
    y_s81_i48_j51_k1  rec_s81_edge_48_51_choose_one  1
    y_s81_i48_j51_k1  budget_K  -6.5600000000000005e+00
    y_s81_i48_j51_k2  rec_s81_edge_48_51_choose_one  1
    y_s81_i48_j51_k2  budget_K  74.72
    y_s81_i49_j26_k0  rec_s81_edge_49_26_choose_one  1
    y_s81_i49_j26_k0  budget_K  -4.73
    y_s81_i49_j26_k1  rec_s81_edge_49_26_choose_one  1
    y_s81_i49_j26_k1  budget_K  9.56
    y_s81_i49_j26_k2  rec_s81_edge_49_26_choose_one  1
    y_s81_i49_j26_k2  budget_K  -5.24
    y_s81_i50_j48_k0  rec_s81_edge_50_48_choose_one  1
    y_s81_i50_j48_k0  budget_K  -10.44
    y_s81_i50_j48_k1  rec_s81_edge_50_48_choose_one  1
    y_s81_i50_j48_k1  budget_K  -3.2800000000000002e+00
    y_s81_i50_j48_k2  rec_s81_edge_50_48_choose_one  1
    y_s81_i50_j48_k2  budget_K  -14.67
    y_s81_i51_j36_k0  rec_s81_edge_51_36_choose_one  1
    y_s81_i51_j36_k0  budget_K  -20.85
    y_s81_i51_j36_k1  rec_s81_edge_51_36_choose_one  1
    y_s81_i51_j36_k1  budget_K  -23.53
    y_s81_i51_j36_k2  rec_s81_edge_51_36_choose_one  1
    y_s81_i51_j36_k2  budget_K  24.26
    y_s81_i52_j47_k0  rec_s81_edge_52_47_choose_one  1
    y_s81_i52_j47_k0  budget_K  0.91
    y_s81_i52_j47_k1  rec_s81_edge_52_47_choose_one  1
    y_s81_i52_j47_k1  budget_K  49.69
    y_s81_i52_j47_k2  rec_s81_edge_52_47_choose_one  1
    y_s81_i52_j47_k2  budget_K  -2.56
    y_s81_i53_j43_k0  rec_s81_edge_53_43_choose_one  1
    y_s81_i53_j43_k0  budget_K  -5.21
    y_s81_i53_j43_k1  rec_s81_edge_53_43_choose_one  1
    y_s81_i53_j43_k1  budget_K  -2.36
    y_s81_i53_j43_k2  rec_s81_edge_53_43_choose_one  1
    y_s81_i53_j43_k2  budget_K  -6.18
    y_s9_i0_j2_k0  rec_s9_edge_0_2_choose_one  1
    y_s9_i0_j2_k0  budget_K  -0.28
    y_s9_i0_j2_k1  rec_s9_edge_0_2_choose_one  1
    y_s9_i0_j2_k1  budget_K  -0.85
    y_s9_i0_j2_k2  rec_s9_edge_0_2_choose_one  1
    y_s9_i0_j2_k2  budget_K  -0.67
    y_s9_i1_j22_k0  rec_s9_edge_1_22_choose_one  1
    y_s9_i1_j22_k0  budget_K  -4.6000000000000005e+00
    y_s9_i1_j22_k1  rec_s9_edge_1_22_choose_one  1
    y_s9_i1_j22_k1  budget_K  -4.53
    y_s9_i1_j22_k2  rec_s9_edge_1_22_choose_one  1
    y_s9_i1_j22_k2  budget_K  -1.3900000000000001e+00
    y_s9_i2_j1_k0  rec_s9_edge_2_1_choose_one  1
    y_s9_i2_j1_k0  budget_K  -1.24
    y_s9_i2_j1_k1  rec_s9_edge_2_1_choose_one  1
    y_s9_i2_j1_k1  budget_K  -0.73
    y_s9_i2_j1_k2  rec_s9_edge_2_1_choose_one  1
    y_s9_i2_j1_k2  budget_K  -1.17
    y_s9_i3_j9_k0  rec_s9_edge_3_9_choose_one  1
    y_s9_i3_j9_k0  budget_K  187.73
    y_s9_i3_j9_k1  rec_s9_edge_3_9_choose_one  1
    y_s9_i3_j9_k1  budget_K  -13.48
    y_s9_i3_j9_k2  rec_s9_edge_3_9_choose_one  1
    y_s9_i3_j9_k2  budget_K  -9.68
    y_s9_i4_j34_k0  rec_s9_edge_4_34_choose_one  1
    y_s9_i4_j34_k0  budget_K  -12.36
    y_s9_i4_j34_k1  rec_s9_edge_4_34_choose_one  1
    y_s9_i4_j34_k1  budget_K  9.78
    y_s9_i4_j34_k2  rec_s9_edge_4_34_choose_one  1
    y_s9_i4_j34_k2  budget_K  -14.44
    y_s9_i5_j0_k0  rec_s9_edge_5_0_choose_one  1
    y_s9_i5_j0_k0  budget_K  -2.05
    y_s9_i5_j0_k1  rec_s9_edge_5_0_choose_one  1
    y_s9_i5_j0_k1  budget_K  -0.43
    y_s9_i5_j0_k2  rec_s9_edge_5_0_choose_one  1
    y_s9_i5_j0_k2  budget_K  1.27
    y_s9_i6_j52_k0  rec_s9_edge_6_52_choose_one  1
    y_s9_i6_j52_k0  budget_K  -6.51
    y_s9_i6_j52_k1  rec_s9_edge_6_52_choose_one  1
    y_s9_i6_j52_k1  budget_K  12.9
    y_s9_i6_j52_k2  rec_s9_edge_6_52_choose_one  1
    y_s9_i6_j52_k2  budget_K  -7.74
    y_s9_i7_j3_k0  rec_s9_edge_7_3_choose_one  1
    y_s9_i7_j3_k0  budget_K  -2.65
    y_s9_i7_j3_k1  rec_s9_edge_7_3_choose_one  1
    y_s9_i7_j3_k1  budget_K  -1.6
    y_s9_i7_j3_k2  rec_s9_edge_7_3_choose_one  1
    y_s9_i7_j3_k2  budget_K  -3.21
    y_s9_i8_j10_k0  rec_s9_edge_8_10_choose_one  1
    y_s9_i8_j10_k0  budget_K  3.1650000000000002e+01
    y_s9_i8_j10_k1  rec_s9_edge_8_10_choose_one  1
    y_s9_i8_j10_k1  budget_K  -2.44
    y_s9_i8_j10_k2  rec_s9_edge_8_10_choose_one  1
    y_s9_i8_j10_k2  budget_K  -4.67
    y_s9_i9_j6_k0  rec_s9_edge_9_6_choose_one  1
    y_s9_i9_j6_k0  budget_K  3
    y_s9_i9_j6_k1  rec_s9_edge_9_6_choose_one  1
    y_s9_i9_j6_k1  budget_K  -10.31
    y_s9_i9_j6_k2  rec_s9_edge_9_6_choose_one  1
    y_s9_i9_j6_k2  budget_K  -9.84
    y_s9_i10_j5_k0  rec_s9_edge_10_5_choose_one  1
    y_s9_i10_j5_k0  budget_K  -4.96
    y_s9_i10_j5_k1  rec_s9_edge_10_5_choose_one  1
    y_s9_i10_j5_k1  budget_K  0.07
    y_s9_i10_j5_k2  rec_s9_edge_10_5_choose_one  1
    y_s9_i10_j5_k2  budget_K  -4.5
    y_s9_i11_j8_k0  rec_s9_edge_11_8_choose_one  1
    y_s9_i11_j8_k0  budget_K  1.1950000000000001e+01
    y_s9_i11_j8_k1  rec_s9_edge_11_8_choose_one  1
    y_s9_i11_j8_k1  budget_K  -0.98
    y_s9_i11_j8_k2  rec_s9_edge_11_8_choose_one  1
    y_s9_i11_j8_k2  budget_K  -0.53
    y_s9_i12_j11_k0  rec_s9_edge_12_11_choose_one  1
    y_s9_i12_j11_k0  budget_K  -1.96
    y_s9_i12_j11_k1  rec_s9_edge_12_11_choose_one  1
    y_s9_i12_j11_k1  budget_K  -0.17
    y_s9_i12_j11_k2  rec_s9_edge_12_11_choose_one  1
    y_s9_i12_j11_k2  budget_K  -1.33
    y_s9_i13_j14_k0  rec_s9_edge_13_14_choose_one  1
    y_s9_i13_j14_k0  budget_K  -1.08
    y_s9_i13_j14_k1  rec_s9_edge_13_14_choose_one  1
    y_s9_i13_j14_k1  budget_K  -4.12
    y_s9_i13_j14_k2  rec_s9_edge_13_14_choose_one  1
    y_s9_i13_j14_k2  budget_K  -6.17
    y_s9_i14_j12_k0  rec_s9_edge_14_12_choose_one  1
    y_s9_i14_j12_k0  budget_K  53.85
    y_s9_i14_j12_k1  rec_s9_edge_14_12_choose_one  1
    y_s9_i14_j12_k1  budget_K  -7.4
    y_s9_i14_j12_k2  rec_s9_edge_14_12_choose_one  1
    y_s9_i14_j12_k2  budget_K  -10.68
    y_s9_i15_j13_k0  rec_s9_edge_15_13_choose_one  1
    y_s9_i15_j13_k0  budget_K  14.96
    y_s9_i15_j13_k1  rec_s9_edge_15_13_choose_one  1
    y_s9_i15_j13_k1  budget_K  -0.3
    y_s9_i15_j13_k2  rec_s9_edge_15_13_choose_one  1
    y_s9_i15_j13_k2  budget_K  -10.99
    y_s9_i16_j17_k0  rec_s9_edge_16_17_choose_one  1
    y_s9_i16_j17_k0  budget_K  -3.96
    y_s9_i16_j17_k1  rec_s9_edge_16_17_choose_one  1
    y_s9_i16_j17_k1  budget_K  -4.95
    y_s9_i16_j17_k2  rec_s9_edge_16_17_choose_one  1
    y_s9_i16_j17_k2  budget_K  -3.94
    y_s9_i17_j38_k0  rec_s9_edge_17_38_choose_one  1
    y_s9_i17_j38_k0  budget_K  -2.98
    y_s9_i17_j38_k1  rec_s9_edge_17_38_choose_one  1
    y_s9_i17_j38_k1  budget_K  -3.0500000000000003e+00
    y_s9_i17_j38_k2  rec_s9_edge_17_38_choose_one  1
    y_s9_i17_j38_k2  budget_K  -5.86
    y_s9_i18_j20_k0  rec_s9_edge_18_20_choose_one  1
    y_s9_i18_j20_k0  budget_K  0.51
    y_s9_i18_j20_k1  rec_s9_edge_18_20_choose_one  1
    y_s9_i18_j20_k1  budget_K  -1.5
    y_s9_i18_j20_k2  rec_s9_edge_18_20_choose_one  1
    y_s9_i18_j20_k2  budget_K  -2.08
    y_s9_i19_j45_k0  rec_s9_edge_19_45_choose_one  1
    y_s9_i19_j45_k0  budget_K  -8.3000000000000007e-01
    y_s9_i19_j45_k1  rec_s9_edge_19_45_choose_one  1
    y_s9_i19_j45_k1  budget_K  -2.12
    y_s9_i19_j45_k2  rec_s9_edge_19_45_choose_one  1
    y_s9_i19_j45_k2  budget_K  -8.3000000000000007e-01
    y_s9_i20_j16_k0  rec_s9_edge_20_16_choose_one  1
    y_s9_i20_j16_k0  budget_K  -9.88
    y_s9_i20_j16_k1  rec_s9_edge_20_16_choose_one  1
    y_s9_i20_j16_k1  budget_K  -11
    y_s9_i20_j16_k2  rec_s9_edge_20_16_choose_one  1
    y_s9_i20_j16_k2  budget_K  -6.15
    y_s9_i21_j24_k0  rec_s9_edge_21_24_choose_one  1
    y_s9_i21_j24_k0  budget_K  -2.56
    y_s9_i21_j24_k1  rec_s9_edge_21_24_choose_one  1
    y_s9_i21_j24_k1  budget_K  -4.03
    y_s9_i21_j24_k2  rec_s9_edge_21_24_choose_one  1
    y_s9_i21_j24_k2  budget_K  -4.38
    y_s9_i22_j21_k0  rec_s9_edge_22_21_choose_one  1
    y_s9_i22_j21_k0  budget_K  -5.79
    y_s9_i22_j21_k1  rec_s9_edge_22_21_choose_one  1
    y_s9_i22_j21_k1  budget_K  -4.14
    y_s9_i22_j21_k2  rec_s9_edge_22_21_choose_one  1
    y_s9_i22_j21_k2  budget_K  -4.82
    y_s9_i23_j46_k0  rec_s9_edge_23_46_choose_one  1
    y_s9_i23_j46_k0  budget_K  -9.6
    y_s9_i23_j46_k1  rec_s9_edge_23_46_choose_one  1
    y_s9_i23_j46_k1  budget_K  11.06
    y_s9_i23_j46_k2  rec_s9_edge_23_46_choose_one  1
    y_s9_i23_j46_k2  budget_K  -6.74
    y_s9_i24_j23_k0  rec_s9_edge_24_23_choose_one  1
    y_s9_i24_j23_k0  budget_K  -2.54
    y_s9_i24_j23_k1  rec_s9_edge_24_23_choose_one  1
    y_s9_i24_j23_k1  budget_K  0.37
    y_s9_i24_j23_k2  rec_s9_edge_24_23_choose_one  1
    y_s9_i24_j23_k2  budget_K  -2.84
    y_s9_i25_j31_k0  rec_s9_edge_25_31_choose_one  1
    y_s9_i25_j31_k0  budget_K  -3.33
    y_s9_i25_j31_k1  rec_s9_edge_25_31_choose_one  1
    y_s9_i25_j31_k1  budget_K  -2.86
    y_s9_i25_j31_k2  rec_s9_edge_25_31_choose_one  1
    y_s9_i25_j31_k2  budget_K  -3.88
    y_s9_i26_j27_k0  rec_s9_edge_26_27_choose_one  1
    y_s9_i26_j27_k0  budget_K  -0.17
    y_s9_i26_j27_k1  rec_s9_edge_26_27_choose_one  1
    y_s9_i26_j27_k1  budget_K  -4.46
    y_s9_i26_j27_k2  rec_s9_edge_26_27_choose_one  1
    y_s9_i26_j27_k2  budget_K  3.27
    y_s9_i27_j28_k0  rec_s9_edge_27_28_choose_one  1
    y_s9_i27_j28_k0  budget_K  -6.57
    y_s9_i27_j28_k1  rec_s9_edge_27_28_choose_one  1
    y_s9_i27_j28_k1  budget_K  -1.49
    y_s9_i27_j28_k2  rec_s9_edge_27_28_choose_one  1
    y_s9_i27_j28_k2  budget_K  2.8000000000000003e+00
    y_s9_i28_j25_k0  rec_s9_edge_28_25_choose_one  1
    y_s9_i28_j25_k0  budget_K  2.4060000000000002e+01
    y_s9_i28_j25_k1  rec_s9_edge_28_25_choose_one  1
    y_s9_i28_j25_k1  budget_K  -4
    y_s9_i28_j25_k2  rec_s9_edge_28_25_choose_one  1
    y_s9_i28_j25_k2  budget_K  -4.72
    y_s9_i29_j7_k0  rec_s9_edge_29_7_choose_one  1
    y_s9_i29_j7_k0  budget_K  -1.55
    y_s9_i29_j7_k1  rec_s9_edge_29_7_choose_one  1
    y_s9_i29_j7_k1  budget_K  1.84
    y_s9_i29_j7_k2  rec_s9_edge_29_7_choose_one  1
    y_s9_i29_j7_k2  budget_K  -3.89
    y_s9_i30_j29_k0  rec_s9_edge_30_29_choose_one  1
    y_s9_i30_j29_k0  budget_K  -1.6400000000000001e+00
    y_s9_i30_j29_k1  rec_s9_edge_30_29_choose_one  1
    y_s9_i30_j29_k1  budget_K  -2.49
    y_s9_i30_j29_k2  rec_s9_edge_30_29_choose_one  1
    y_s9_i30_j29_k2  budget_K  5.83
    y_s9_i31_j30_k0  rec_s9_edge_31_30_choose_one  1
    y_s9_i31_j30_k0  budget_K  4.4
    y_s9_i31_j30_k1  rec_s9_edge_31_30_choose_one  1
    y_s9_i31_j30_k1  budget_K  -2.3000000000000003e+00
    y_s9_i31_j30_k2  rec_s9_edge_31_30_choose_one  1
    y_s9_i31_j30_k2  budget_K  -1.94
    y_s9_i32_j40_k0  rec_s9_edge_32_40_choose_one  1
    y_s9_i32_j40_k0  budget_K  -33.13
    y_s9_i32_j40_k1  rec_s9_edge_32_40_choose_one  1
    y_s9_i32_j40_k1  budget_K  38.62
    y_s9_i32_j40_k2  rec_s9_edge_32_40_choose_one  1
    y_s9_i32_j40_k2  budget_K  -2.8400000000000002e+01
    y_s9_i33_j35_k0  rec_s9_edge_33_35_choose_one  1
    y_s9_i33_j35_k0  budget_K  -5.75
    y_s9_i33_j35_k1  rec_s9_edge_33_35_choose_one  1
    y_s9_i33_j35_k1  budget_K  5.14
    y_s9_i33_j35_k2  rec_s9_edge_33_35_choose_one  1
    y_s9_i33_j35_k2  budget_K  -4.83
    y_s9_i34_j33_k0  rec_s9_edge_34_33_choose_one  1
    y_s9_i34_j33_k0  budget_K  2.34
    y_s9_i34_j33_k1  rec_s9_edge_34_33_choose_one  1
    y_s9_i34_j33_k1  budget_K  -11.33
    y_s9_i34_j33_k2  rec_s9_edge_34_33_choose_one  1
    y_s9_i34_j33_k2  budget_K  -13.63
    y_s9_i35_j32_k0  rec_s9_edge_35_32_choose_one  1
    y_s9_i35_j32_k0  budget_K  -14.13
    y_s9_i35_j32_k1  rec_s9_edge_35_32_choose_one  1
    y_s9_i35_j32_k1  budget_K  -12.93
    y_s9_i35_j32_k2  rec_s9_edge_35_32_choose_one  1
    y_s9_i35_j32_k2  budget_K  -9.34
    y_s9_i36_j49_k0  rec_s9_edge_36_49_choose_one  1
    y_s9_i36_j49_k0  budget_K  -1.5
    y_s9_i36_j49_k1  rec_s9_edge_36_49_choose_one  1
    y_s9_i36_j49_k1  budget_K  0.46
    y_s9_i36_j49_k2  rec_s9_edge_36_49_choose_one  1
    y_s9_i36_j49_k2  budget_K  -2.42
    y_s9_i37_j39_k0  rec_s9_edge_37_39_choose_one  1
    y_s9_i37_j39_k0  budget_K  1.1300000000000001e+00
    y_s9_i37_j39_k1  rec_s9_edge_37_39_choose_one  1
    y_s9_i37_j39_k1  budget_K  -39.21
    y_s9_i37_j39_k2  rec_s9_edge_37_39_choose_one  1
    y_s9_i37_j39_k2  budget_K  -46.39
    y_s9_i38_j15_k0  rec_s9_edge_38_15_choose_one  1
    y_s9_i38_j15_k0  budget_K  3.15
    y_s9_i38_j15_k1  rec_s9_edge_38_15_choose_one  1
    y_s9_i38_j15_k1  budget_K  -2.41
    y_s9_i38_j15_k2  rec_s9_edge_38_15_choose_one  1
    y_s9_i38_j15_k2  budget_K  -4.87
    y_s9_i39_j53_k0  rec_s9_edge_39_53_choose_one  1
    y_s9_i39_j53_k0  budget_K  64.6
    y_s9_i39_j53_k1  rec_s9_edge_39_53_choose_one  1
    y_s9_i39_j53_k1  budget_K  84.81
    y_s9_i39_j53_k2  rec_s9_edge_39_53_choose_one  1
    y_s9_i39_j53_k2  budget_K  -25
    y_s9_i40_j37_k0  rec_s9_edge_40_37_choose_one  1
    y_s9_i40_j37_k0  budget_K  -26.44
    y_s9_i40_j37_k1  rec_s9_edge_40_37_choose_one  1
    y_s9_i40_j37_k1  budget_K  -15.81
    y_s9_i40_j37_k2  rec_s9_edge_40_37_choose_one  1
    y_s9_i40_j37_k2  budget_K  14.98
    y_s9_i41_j4_k0  rec_s9_edge_41_4_choose_one  1
    y_s9_i41_j4_k0  budget_K  -2.09
    y_s9_i41_j4_k1  rec_s9_edge_41_4_choose_one  1
    y_s9_i41_j4_k1  budget_K  -4.0200000000000005e+00
    y_s9_i41_j4_k2  rec_s9_edge_41_4_choose_one  1
    y_s9_i41_j4_k2  budget_K  0.84
    y_s9_i42_j44_k0  rec_s9_edge_42_44_choose_one  1
    y_s9_i42_j44_k0  budget_K  -10.83
    y_s9_i42_j44_k1  rec_s9_edge_42_44_choose_one  1
    y_s9_i42_j44_k1  budget_K  9.7070000000000007e+01
    y_s9_i42_j44_k2  rec_s9_edge_42_44_choose_one  1
    y_s9_i42_j44_k2  budget_K  1.12
    y_s9_i43_j19_k0  rec_s9_edge_43_19_choose_one  1
    y_s9_i43_j19_k0  budget_K  -3.67
    y_s9_i43_j19_k1  rec_s9_edge_43_19_choose_one  1
    y_s9_i43_j19_k1  budget_K  1.01
    y_s9_i43_j19_k2  rec_s9_edge_43_19_choose_one  1
    y_s9_i43_j19_k2  budget_K  -1.3780000000000001e+01
    y_s9_i44_j50_k0  rec_s9_edge_44_50_choose_one  1
    y_s9_i44_j50_k0  budget_K  -25.05
    y_s9_i44_j50_k1  rec_s9_edge_44_50_choose_one  1
    y_s9_i44_j50_k1  budget_K  -16.95
    y_s9_i44_j50_k2  rec_s9_edge_44_50_choose_one  1
    y_s9_i44_j50_k2  budget_K  -36.64
    y_s9_i45_j18_k0  rec_s9_edge_45_18_choose_one  1
    y_s9_i45_j18_k0  budget_K  5.18
    y_s9_i45_j18_k1  rec_s9_edge_45_18_choose_one  1
    y_s9_i45_j18_k1  budget_K  -7.43
    y_s9_i45_j18_k2  rec_s9_edge_45_18_choose_one  1
    y_s9_i45_j18_k2  budget_K  0.45
    y_s9_i46_j42_k0  rec_s9_edge_46_42_choose_one  1
    y_s9_i46_j42_k0  budget_K  11.59
    y_s9_i46_j42_k1  rec_s9_edge_46_42_choose_one  1
    y_s9_i46_j42_k1  budget_K  -7.21
    y_s9_i46_j42_k2  rec_s9_edge_46_42_choose_one  1
    y_s9_i46_j42_k2  budget_K  -2.52
    y_s9_i47_j41_k0  rec_s9_edge_47_41_choose_one  1
    y_s9_i47_j41_k0  budget_K  -1.7
    y_s9_i47_j41_k1  rec_s9_edge_47_41_choose_one  1
    y_s9_i47_j41_k1  budget_K  -2.07
    y_s9_i47_j41_k2  rec_s9_edge_47_41_choose_one  1
    y_s9_i47_j41_k2  budget_K  -15.35
    y_s9_i48_j51_k0  rec_s9_edge_48_51_choose_one  1
    y_s9_i48_j51_k0  budget_K  13.72
    y_s9_i48_j51_k1  rec_s9_edge_48_51_choose_one  1
    y_s9_i48_j51_k1  budget_K  58.42
    y_s9_i48_j51_k2  rec_s9_edge_48_51_choose_one  1
    y_s9_i48_j51_k2  budget_K  3.87
    y_s9_i49_j26_k0  rec_s9_edge_49_26_choose_one  1
    y_s9_i49_j26_k0  budget_K  -5.5
    y_s9_i49_j26_k1  rec_s9_edge_49_26_choose_one  1
    y_s9_i49_j26_k1  budget_K  -4.0200000000000005e+00
    y_s9_i49_j26_k2  rec_s9_edge_49_26_choose_one  1
    y_s9_i49_j26_k2  budget_K  -1.55
    y_s9_i50_j48_k0  rec_s9_edge_50_48_choose_one  1
    y_s9_i50_j48_k0  budget_K  -15
    y_s9_i50_j48_k1  rec_s9_edge_50_48_choose_one  1
    y_s9_i50_j48_k1  budget_K  -16.48
    y_s9_i50_j48_k2  rec_s9_edge_50_48_choose_one  1
    y_s9_i50_j48_k2  budget_K  -3.7600000000000002e+00
    y_s9_i51_j36_k0  rec_s9_edge_51_36_choose_one  1
    y_s9_i51_j36_k0  budget_K  57.44
    y_s9_i51_j36_k1  rec_s9_edge_51_36_choose_one  1
    y_s9_i51_j36_k1  budget_K  -7.7700000000000005e+00
    y_s9_i51_j36_k2  rec_s9_edge_51_36_choose_one  1
    y_s9_i51_j36_k2  budget_K  -20.03
    y_s9_i52_j47_k0  rec_s9_edge_52_47_choose_one  1
    y_s9_i52_j47_k0  budget_K  -5.42
    y_s9_i52_j47_k1  rec_s9_edge_52_47_choose_one  1
    y_s9_i52_j47_k1  budget_K  -8.88
    y_s9_i52_j47_k2  rec_s9_edge_52_47_choose_one  1
    y_s9_i52_j47_k2  budget_K  7.84
    y_s9_i53_j43_k0  rec_s9_edge_53_43_choose_one  1
    y_s9_i53_j43_k0  budget_K  -3.34
    y_s9_i53_j43_k1  rec_s9_edge_53_43_choose_one  1
    y_s9_i53_j43_k1  budget_K  -4.36
    y_s9_i53_j43_k2  rec_s9_edge_53_43_choose_one  1
    y_s9_i53_j43_k2  budget_K  -2.77
    y_s63_i0_j2_k0  rec_s63_edge_0_2_choose_one  1
    y_s63_i0_j2_k0  budget_K  1.6300000000000001e+00
    y_s63_i0_j2_k1  rec_s63_edge_0_2_choose_one  1
    y_s63_i0_j2_k1  budget_K  0.02
    y_s63_i0_j2_k2  rec_s63_edge_0_2_choose_one  1
    y_s63_i0_j2_k2  budget_K  -0.34
    y_s63_i1_j22_k0  rec_s63_edge_1_22_choose_one  1
    y_s63_i1_j22_k0  budget_K  -6.3500000000000005e+00
    y_s63_i1_j22_k1  rec_s63_edge_1_22_choose_one  1
    y_s63_i1_j22_k1  budget_K  -3.5
    y_s63_i1_j22_k2  rec_s63_edge_1_22_choose_one  1
    y_s63_i1_j22_k2  budget_K  0.93
    y_s63_i2_j1_k0  rec_s63_edge_2_1_choose_one  1
    y_s63_i2_j1_k0  budget_K  2.79
    y_s63_i2_j1_k1  rec_s63_edge_2_1_choose_one  1
    y_s63_i2_j1_k1  budget_K  -0.96
    y_s63_i2_j1_k2  rec_s63_edge_2_1_choose_one  1
    y_s63_i2_j1_k2  budget_K  -0.67
    y_s63_i3_j9_k0  rec_s63_edge_3_9_choose_one  1
    y_s63_i3_j9_k0  budget_K  -11.73
    y_s63_i3_j9_k1  rec_s63_edge_3_9_choose_one  1
    y_s63_i3_j9_k1  budget_K  -12.63
    y_s63_i3_j9_k2  rec_s63_edge_3_9_choose_one  1
    y_s63_i3_j9_k2  budget_K  -5.69
    y_s63_i4_j34_k0  rec_s63_edge_4_34_choose_one  1
    y_s63_i4_j34_k0  budget_K  -1.8400000000000002e+01
    y_s63_i4_j34_k1  rec_s63_edge_4_34_choose_one  1
    y_s63_i4_j34_k1  budget_K  6.0200000000000005e+00
    y_s63_i4_j34_k2  rec_s63_edge_4_34_choose_one  1
    y_s63_i4_j34_k2  budget_K  -12.26
    y_s63_i5_j0_k0  rec_s63_edge_5_0_choose_one  1
    y_s63_i5_j0_k0  budget_K  -4.4
    y_s63_i5_j0_k1  rec_s63_edge_5_0_choose_one  1
    y_s63_i5_j0_k1  budget_K  -4.64
    y_s63_i5_j0_k2  rec_s63_edge_5_0_choose_one  1
    y_s63_i5_j0_k2  budget_K  -5.54
    y_s63_i6_j52_k0  rec_s63_edge_6_52_choose_one  1
    y_s63_i6_j52_k0  budget_K  -8.2000000000000006e-01
    y_s63_i6_j52_k1  rec_s63_edge_6_52_choose_one  1
    y_s63_i6_j52_k1  budget_K  -8.81
    y_s63_i6_j52_k2  rec_s63_edge_6_52_choose_one  1
    y_s63_i6_j52_k2  budget_K  18.27
    y_s63_i7_j3_k0  rec_s63_edge_7_3_choose_one  1
    y_s63_i7_j3_k0  budget_K  5.7000000000000006e-01
    y_s63_i7_j3_k1  rec_s63_edge_7_3_choose_one  1
    y_s63_i7_j3_k1  budget_K  -2.37
    y_s63_i7_j3_k2  rec_s63_edge_7_3_choose_one  1
    y_s63_i7_j3_k2  budget_K  1.43
    y_s63_i8_j10_k0  rec_s63_edge_8_10_choose_one  1
    y_s63_i8_j10_k0  budget_K  -5.89
    y_s63_i8_j10_k1  rec_s63_edge_8_10_choose_one  1
    y_s63_i8_j10_k1  budget_K  -5.13
    y_s63_i8_j10_k2  rec_s63_edge_8_10_choose_one  1
    y_s63_i8_j10_k2  budget_K  -4.34
    y_s63_i9_j6_k0  rec_s63_edge_9_6_choose_one  1
    y_s63_i9_j6_k0  budget_K  -7.45
    y_s63_i9_j6_k1  rec_s63_edge_9_6_choose_one  1
    y_s63_i9_j6_k1  budget_K  0.28
    y_s63_i9_j6_k2  rec_s63_edge_9_6_choose_one  1
    y_s63_i9_j6_k2  budget_K  -3.96
    y_s63_i10_j5_k0  rec_s63_edge_10_5_choose_one  1
    y_s63_i10_j5_k0  budget_K  -2.06
    y_s63_i10_j5_k1  rec_s63_edge_10_5_choose_one  1
    y_s63_i10_j5_k1  budget_K  2.77
    y_s63_i10_j5_k2  rec_s63_edge_10_5_choose_one  1
    y_s63_i10_j5_k2  budget_K  -6.55
    y_s63_i11_j8_k0  rec_s63_edge_11_8_choose_one  1
    y_s63_i11_j8_k0  budget_K  -3.22
    y_s63_i11_j8_k1  rec_s63_edge_11_8_choose_one  1
    y_s63_i11_j8_k1  budget_K  3.0700000000000003e+00
    y_s63_i11_j8_k2  rec_s63_edge_11_8_choose_one  1
    y_s63_i11_j8_k2  budget_K  -3.04
    y_s63_i12_j11_k0  rec_s63_edge_12_11_choose_one  1
    y_s63_i12_j11_k0  budget_K  -1.32
    y_s63_i12_j11_k1  rec_s63_edge_12_11_choose_one  1
    y_s63_i12_j11_k1  budget_K  -1.04
    y_s63_i12_j11_k2  rec_s63_edge_12_11_choose_one  1
    y_s63_i12_j11_k2  budget_K  -1.57
    y_s63_i13_j14_k0  rec_s63_edge_13_14_choose_one  1
    y_s63_i13_j14_k0  budget_K  10.99
    y_s63_i13_j14_k1  rec_s63_edge_13_14_choose_one  1
    y_s63_i13_j14_k1  budget_K  -6.78
    y_s63_i13_j14_k2  rec_s63_edge_13_14_choose_one  1
    y_s63_i13_j14_k2  budget_K  1.1300000000000001e+00
    y_s63_i14_j12_k0  rec_s63_edge_14_12_choose_one  1
    y_s63_i14_j12_k0  budget_K  -9.09
    y_s63_i14_j12_k1  rec_s63_edge_14_12_choose_one  1
    y_s63_i14_j12_k1  budget_K  -3.89
    y_s63_i14_j12_k2  rec_s63_edge_14_12_choose_one  1
    y_s63_i14_j12_k2  budget_K  -1.3900000000000001e+00
    y_s63_i15_j13_k0  rec_s63_edge_15_13_choose_one  1
    y_s63_i15_j13_k0  budget_K  -10.57
    y_s63_i15_j13_k1  rec_s63_edge_15_13_choose_one  1
    y_s63_i15_j13_k1  budget_K  -0.77
    y_s63_i15_j13_k2  rec_s63_edge_15_13_choose_one  1
    y_s63_i15_j13_k2  budget_K  2.59
    y_s63_i16_j17_k0  rec_s63_edge_16_17_choose_one  1
    y_s63_i16_j17_k0  budget_K  36.5
    y_s63_i16_j17_k1  rec_s63_edge_16_17_choose_one  1
    y_s63_i16_j17_k1  budget_K  -6.34
    y_s63_i16_j17_k2  rec_s63_edge_16_17_choose_one  1
    y_s63_i16_j17_k2  budget_K  -5.32
    y_s63_i17_j38_k0  rec_s63_edge_17_38_choose_one  1
    y_s63_i17_j38_k0  budget_K  -3.86
    y_s63_i17_j38_k1  rec_s63_edge_17_38_choose_one  1
    y_s63_i17_j38_k1  budget_K  -3.65
    y_s63_i17_j38_k2  rec_s63_edge_17_38_choose_one  1
    y_s63_i17_j38_k2  budget_K  -5.16
    y_s63_i18_j20_k0  rec_s63_edge_18_20_choose_one  1
    y_s63_i18_j20_k0  budget_K  -0.42
    y_s63_i18_j20_k1  rec_s63_edge_18_20_choose_one  1
    y_s63_i18_j20_k1  budget_K  -2.5
    y_s63_i18_j20_k2  rec_s63_edge_18_20_choose_one  1
    y_s63_i18_j20_k2  budget_K  -0.92
    y_s63_i19_j45_k0  rec_s63_edge_19_45_choose_one  1
    y_s63_i19_j45_k0  budget_K  -3.5000000000000003e-01
    y_s63_i19_j45_k1  rec_s63_edge_19_45_choose_one  1
    y_s63_i19_j45_k1  budget_K  -2.07
    y_s63_i19_j45_k2  rec_s63_edge_19_45_choose_one  1
    y_s63_i19_j45_k2  budget_K  -2.05
    y_s63_i20_j16_k0  rec_s63_edge_20_16_choose_one  1
    y_s63_i20_j16_k0  budget_K  10.63
    y_s63_i20_j16_k1  rec_s63_edge_20_16_choose_one  1
    y_s63_i20_j16_k1  budget_K  -1.1040000000000001e+01
    y_s63_i20_j16_k2  rec_s63_edge_20_16_choose_one  1
    y_s63_i20_j16_k2  budget_K  -11.01
    y_s63_i21_j24_k0  rec_s63_edge_21_24_choose_one  1
    y_s63_i21_j24_k0  budget_K  -2.33
    y_s63_i21_j24_k1  rec_s63_edge_21_24_choose_one  1
    y_s63_i21_j24_k1  budget_K  11.35
    y_s63_i21_j24_k2  rec_s63_edge_21_24_choose_one  1
    y_s63_i21_j24_k2  budget_K  -3.09
    y_s63_i22_j21_k0  rec_s63_edge_22_21_choose_one  1
    y_s63_i22_j21_k0  budget_K  -4.47
    y_s63_i22_j21_k1  rec_s63_edge_22_21_choose_one  1
    y_s63_i22_j21_k1  budget_K  -3.17
    y_s63_i22_j21_k2  rec_s63_edge_22_21_choose_one  1
    y_s63_i22_j21_k2  budget_K  -4.79
    y_s63_i23_j46_k0  rec_s63_edge_23_46_choose_one  1
    y_s63_i23_j46_k0  budget_K  -9.59
    y_s63_i23_j46_k1  rec_s63_edge_23_46_choose_one  1
    y_s63_i23_j46_k1  budget_K  -11.84
    y_s63_i23_j46_k2  rec_s63_edge_23_46_choose_one  1
    y_s63_i23_j46_k2  budget_K  -3.12
    y_s63_i24_j23_k0  rec_s63_edge_24_23_choose_one  1
    y_s63_i24_j23_k0  budget_K  -2.04
    y_s63_i24_j23_k1  rec_s63_edge_24_23_choose_one  1
    y_s63_i24_j23_k1  budget_K  19.05
    y_s63_i24_j23_k2  rec_s63_edge_24_23_choose_one  1
    y_s63_i24_j23_k2  budget_K  0.58
    y_s63_i25_j31_k0  rec_s63_edge_25_31_choose_one  1
    y_s63_i25_j31_k0  budget_K  -4.45
    y_s63_i25_j31_k1  rec_s63_edge_25_31_choose_one  1
    y_s63_i25_j31_k1  budget_K  -5.45
    y_s63_i25_j31_k2  rec_s63_edge_25_31_choose_one  1
    y_s63_i25_j31_k2  budget_K  -4.48
    y_s63_i26_j27_k0  rec_s63_edge_26_27_choose_one  1
    y_s63_i26_j27_k0  budget_K  -3.29
    y_s63_i26_j27_k1  rec_s63_edge_26_27_choose_one  1
    y_s63_i26_j27_k1  budget_K  -2.31
    y_s63_i26_j27_k2  rec_s63_edge_26_27_choose_one  1
    y_s63_i26_j27_k2  budget_K  -4.34
    y_s63_i27_j28_k0  rec_s63_edge_27_28_choose_one  1
    y_s63_i27_j28_k0  budget_K  -1.74
    y_s63_i27_j28_k1  rec_s63_edge_27_28_choose_one  1
    y_s63_i27_j28_k1  budget_K  -1.09
    y_s63_i27_j28_k2  rec_s63_edge_27_28_choose_one  1
    y_s63_i27_j28_k2  budget_K  -1.9100000000000001e+00
    y_s63_i28_j25_k0  rec_s63_edge_28_25_choose_one  1
    y_s63_i28_j25_k0  budget_K  -6.13
    y_s63_i28_j25_k1  rec_s63_edge_28_25_choose_one  1
    y_s63_i28_j25_k1  budget_K  -4.8
    y_s63_i28_j25_k2  rec_s63_edge_28_25_choose_one  1
    y_s63_i28_j25_k2  budget_K  114.48
    y_s63_i29_j7_k0  rec_s63_edge_29_7_choose_one  1
    y_s63_i29_j7_k0  budget_K  -5.12
    y_s63_i29_j7_k1  rec_s63_edge_29_7_choose_one  1
    y_s63_i29_j7_k1  budget_K  -5
    y_s63_i29_j7_k2  rec_s63_edge_29_7_choose_one  1
    y_s63_i29_j7_k2  budget_K  -8.77
    y_s63_i30_j29_k0  rec_s63_edge_30_29_choose_one  1
    y_s63_i30_j29_k0  budget_K  -3.15
    y_s63_i30_j29_k1  rec_s63_edge_30_29_choose_one  1
    y_s63_i30_j29_k1  budget_K  -1.68
    y_s63_i30_j29_k2  rec_s63_edge_30_29_choose_one  1
    y_s63_i30_j29_k2  budget_K  -3.43
    y_s63_i31_j30_k0  rec_s63_edge_31_30_choose_one  1
    y_s63_i31_j30_k0  budget_K  -3.62
    y_s63_i31_j30_k1  rec_s63_edge_31_30_choose_one  1
    y_s63_i31_j30_k1  budget_K  -2.04
    y_s63_i31_j30_k2  rec_s63_edge_31_30_choose_one  1
    y_s63_i31_j30_k2  budget_K  -1.22
    y_s63_i32_j40_k0  rec_s63_edge_32_40_choose_one  1
    y_s63_i32_j40_k0  budget_K  -27.44
    y_s63_i32_j40_k1  rec_s63_edge_32_40_choose_one  1
    y_s63_i32_j40_k1  budget_K  533.39
    y_s63_i32_j40_k2  rec_s63_edge_32_40_choose_one  1
    y_s63_i32_j40_k2  budget_K  -30.17
    y_s63_i33_j35_k0  rec_s63_edge_33_35_choose_one  1
    y_s63_i33_j35_k0  budget_K  -5.9
    y_s63_i33_j35_k1  rec_s63_edge_33_35_choose_one  1
    y_s63_i33_j35_k1  budget_K  -4.24
    y_s63_i33_j35_k2  rec_s63_edge_33_35_choose_one  1
    y_s63_i33_j35_k2  budget_K  143
    y_s63_i34_j33_k0  rec_s63_edge_34_33_choose_one  1
    y_s63_i34_j33_k0  budget_K  -7.95
    y_s63_i34_j33_k1  rec_s63_edge_34_33_choose_one  1
    y_s63_i34_j33_k1  budget_K  -12.27
    y_s63_i34_j33_k2  rec_s63_edge_34_33_choose_one  1
    y_s63_i34_j33_k2  budget_K  -8.44
    y_s63_i35_j32_k0  rec_s63_edge_35_32_choose_one  1
    y_s63_i35_j32_k0  budget_K  -9.38
    y_s63_i35_j32_k1  rec_s63_edge_35_32_choose_one  1
    y_s63_i35_j32_k1  budget_K  40.83
    y_s63_i35_j32_k2  rec_s63_edge_35_32_choose_one  1
    y_s63_i35_j32_k2  budget_K  249.12
    y_s63_i36_j49_k0  rec_s63_edge_36_49_choose_one  1
    y_s63_i36_j49_k0  budget_K  -1.8
    y_s63_i36_j49_k1  rec_s63_edge_36_49_choose_one  1
    y_s63_i36_j49_k1  budget_K  -0.92
    y_s63_i36_j49_k2  rec_s63_edge_36_49_choose_one  1
    y_s63_i36_j49_k2  budget_K  0.43
    y_s63_i37_j39_k0  rec_s63_edge_37_39_choose_one  1
    y_s63_i37_j39_k0  budget_K  -46.53
    y_s63_i37_j39_k1  rec_s63_edge_37_39_choose_one  1
    y_s63_i37_j39_k1  budget_K  -43.17
    y_s63_i37_j39_k2  rec_s63_edge_37_39_choose_one  1
    y_s63_i37_j39_k2  budget_K  -31.21
    y_s63_i38_j15_k0  rec_s63_edge_38_15_choose_one  1
    y_s63_i38_j15_k0  budget_K  -7.24
    y_s63_i38_j15_k1  rec_s63_edge_38_15_choose_one  1
    y_s63_i38_j15_k1  budget_K  11.59
    y_s63_i38_j15_k2  rec_s63_edge_38_15_choose_one  1
    y_s63_i38_j15_k2  budget_K  -2.33
    y_s63_i39_j53_k0  rec_s63_edge_39_53_choose_one  1
    y_s63_i39_j53_k0  budget_K  -24.44
    y_s63_i39_j53_k1  rec_s63_edge_39_53_choose_one  1
    y_s63_i39_j53_k1  budget_K  -4.23
    y_s63_i39_j53_k2  rec_s63_edge_39_53_choose_one  1
    y_s63_i39_j53_k2  budget_K  -26.93
    y_s63_i40_j37_k0  rec_s63_edge_40_37_choose_one  1
    y_s63_i40_j37_k0  budget_K  -29.93
    y_s63_i40_j37_k1  rec_s63_edge_40_37_choose_one  1
    y_s63_i40_j37_k1  budget_K  -2.1650000000000002e+01
    y_s63_i40_j37_k2  rec_s63_edge_40_37_choose_one  1
    y_s63_i40_j37_k2  budget_K  -14.73
    y_s63_i41_j4_k0  rec_s63_edge_41_4_choose_one  1
    y_s63_i41_j4_k0  budget_K  -5.51
    y_s63_i41_j4_k1  rec_s63_edge_41_4_choose_one  1
    y_s63_i41_j4_k1  budget_K  3.13
    y_s63_i41_j4_k2  rec_s63_edge_41_4_choose_one  1
    y_s63_i41_j4_k2  budget_K  15.63
    y_s63_i42_j44_k0  rec_s63_edge_42_44_choose_one  1
    y_s63_i42_j44_k0  budget_K  -11.43
    y_s63_i42_j44_k1  rec_s63_edge_42_44_choose_one  1
    y_s63_i42_j44_k1  budget_K  -12.16
    y_s63_i42_j44_k2  rec_s63_edge_42_44_choose_one  1
    y_s63_i42_j44_k2  budget_K  0.92
    y_s63_i43_j19_k0  rec_s63_edge_43_19_choose_one  1
    y_s63_i43_j19_k0  budget_K  -4.2
    y_s63_i43_j19_k1  rec_s63_edge_43_19_choose_one  1
    y_s63_i43_j19_k1  budget_K  -10.06
    y_s63_i43_j19_k2  rec_s63_edge_43_19_choose_one  1
    y_s63_i43_j19_k2  budget_K  -16.68
    y_s63_i44_j50_k0  rec_s63_edge_44_50_choose_one  1
    y_s63_i44_j50_k0  budget_K  -2.1740000000000002e+01
    y_s63_i44_j50_k1  rec_s63_edge_44_50_choose_one  1
    y_s63_i44_j50_k1  budget_K  -1.2280000000000001e+01
    y_s63_i44_j50_k2  rec_s63_edge_44_50_choose_one  1
    y_s63_i44_j50_k2  budget_K  64.31
    y_s63_i45_j18_k0  rec_s63_edge_45_18_choose_one  1
    y_s63_i45_j18_k0  budget_K  -5.17
    y_s63_i45_j18_k1  rec_s63_edge_45_18_choose_one  1
    y_s63_i45_j18_k1  budget_K  -8.43
    y_s63_i45_j18_k2  rec_s63_edge_45_18_choose_one  1
    y_s63_i45_j18_k2  budget_K  3.67
    y_s63_i46_j42_k0  rec_s63_edge_46_42_choose_one  1
    y_s63_i46_j42_k0  budget_K  -2.71
    y_s63_i46_j42_k1  rec_s63_edge_46_42_choose_one  1
    y_s63_i46_j42_k1  budget_K  -8.74
    y_s63_i46_j42_k2  rec_s63_edge_46_42_choose_one  1
    y_s63_i46_j42_k2  budget_K  -9.44
    y_s63_i47_j41_k0  rec_s63_edge_47_41_choose_one  1
    y_s63_i47_j41_k0  budget_K  6.17
    y_s63_i47_j41_k1  rec_s63_edge_47_41_choose_one  1
    y_s63_i47_j41_k1  budget_K  121.88
    y_s63_i47_j41_k2  rec_s63_edge_47_41_choose_one  1
    y_s63_i47_j41_k2  budget_K  -14.64
    y_s63_i48_j51_k0  rec_s63_edge_48_51_choose_one  1
    y_s63_i48_j51_k0  budget_K  18.96
    y_s63_i48_j51_k1  rec_s63_edge_48_51_choose_one  1
    y_s63_i48_j51_k1  budget_K  -6.37
    y_s63_i48_j51_k2  rec_s63_edge_48_51_choose_one  1
    y_s63_i48_j51_k2  budget_K  6.55
    y_s63_i49_j26_k0  rec_s63_edge_49_26_choose_one  1
    y_s63_i49_j26_k0  budget_K  -4.68
    y_s63_i49_j26_k1  rec_s63_edge_49_26_choose_one  1
    y_s63_i49_j26_k1  budget_K  -3.79
    y_s63_i49_j26_k2  rec_s63_edge_49_26_choose_one  1
    y_s63_i49_j26_k2  budget_K  1.12
    y_s63_i50_j48_k0  rec_s63_edge_50_48_choose_one  1
    y_s63_i50_j48_k0  budget_K  -17.76
    y_s63_i50_j48_k1  rec_s63_edge_50_48_choose_one  1
    y_s63_i50_j48_k1  budget_K  -11.3
    y_s63_i50_j48_k2  rec_s63_edge_50_48_choose_one  1
    y_s63_i50_j48_k2  budget_K  -1.99
    y_s63_i51_j36_k0  rec_s63_edge_51_36_choose_one  1
    y_s63_i51_j36_k0  budget_K  -27.86
    y_s63_i51_j36_k1  rec_s63_edge_51_36_choose_one  1
    y_s63_i51_j36_k1  budget_K  -19.17
    y_s63_i51_j36_k2  rec_s63_edge_51_36_choose_one  1
    y_s63_i51_j36_k2  budget_K  -22.93
    y_s63_i52_j47_k0  rec_s63_edge_52_47_choose_one  1
    y_s63_i52_j47_k0  budget_K  10.24
    y_s63_i52_j47_k1  rec_s63_edge_52_47_choose_one  1
    y_s63_i52_j47_k1  budget_K  -7.37
    y_s63_i52_j47_k2  rec_s63_edge_52_47_choose_one  1
    y_s63_i52_j47_k2  budget_K  3.85
    y_s63_i53_j43_k0  rec_s63_edge_53_43_choose_one  1
    y_s63_i53_j43_k0  budget_K  -6.76
    y_s63_i53_j43_k1  rec_s63_edge_53_43_choose_one  1
    y_s63_i53_j43_k1  budget_K  -2.05
    y_s63_i53_j43_k2  rec_s63_edge_53_43_choose_one  1
    y_s63_i53_j43_k2  budget_K  2.22
    y_s43_i0_j2_k0  rec_s43_edge_0_2_choose_one  1
    y_s43_i0_j2_k0  budget_K  -0.67
    y_s43_i0_j2_k1  rec_s43_edge_0_2_choose_one  1
    y_s43_i0_j2_k1  budget_K  0.79
    y_s43_i0_j2_k2  rec_s43_edge_0_2_choose_one  1
    y_s43_i0_j2_k2  budget_K  0.06
    y_s43_i1_j22_k0  rec_s43_edge_1_22_choose_one  1
    y_s43_i1_j22_k0  budget_K  -4.19
    y_s43_i1_j22_k1  rec_s43_edge_1_22_choose_one  1
    y_s43_i1_j22_k1  budget_K  -1.92
    y_s43_i1_j22_k2  rec_s43_edge_1_22_choose_one  1
    y_s43_i1_j22_k2  budget_K  -5.91
    y_s43_i2_j1_k0  rec_s43_edge_2_1_choose_one  1
    y_s43_i2_j1_k0  budget_K  -0.66
    y_s43_i2_j1_k1  rec_s43_edge_2_1_choose_one  1
    y_s43_i2_j1_k1  budget_K  -0.66
    y_s43_i2_j1_k2  rec_s43_edge_2_1_choose_one  1
    y_s43_i2_j1_k2  budget_K  3.77
    y_s43_i3_j9_k0  rec_s43_edge_3_9_choose_one  1
    y_s43_i3_j9_k0  budget_K  -8.8700000000000010e+00
    y_s43_i3_j9_k1  rec_s43_edge_3_9_choose_one  1
    y_s43_i3_j9_k1  budget_K  -8.83
    y_s43_i3_j9_k2  rec_s43_edge_3_9_choose_one  1
    y_s43_i3_j9_k2  budget_K  34.88
    y_s43_i4_j34_k0  rec_s43_edge_4_34_choose_one  1
    y_s43_i4_j34_k0  budget_K  -12.41
    y_s43_i4_j34_k1  rec_s43_edge_4_34_choose_one  1
    y_s43_i4_j34_k1  budget_K  19.62
    y_s43_i4_j34_k2  rec_s43_edge_4_34_choose_one  1
    y_s43_i4_j34_k2  budget_K  -1.5370000000000001e+01
    y_s43_i5_j0_k0  rec_s43_edge_5_0_choose_one  1
    y_s43_i5_j0_k0  budget_K  -3.64
    y_s43_i5_j0_k1  rec_s43_edge_5_0_choose_one  1
    y_s43_i5_j0_k1  budget_K  56.22
    y_s43_i5_j0_k2  rec_s43_edge_5_0_choose_one  1
    y_s43_i5_j0_k2  budget_K  -6.2
    y_s43_i6_j52_k0  rec_s43_edge_6_52_choose_one  1
    y_s43_i6_j52_k0  budget_K  -10.27
    y_s43_i6_j52_k1  rec_s43_edge_6_52_choose_one  1
    y_s43_i6_j52_k1  budget_K  5.55
    y_s43_i6_j52_k2  rec_s43_edge_6_52_choose_one  1
    y_s43_i6_j52_k2  budget_K  -6.25
    y_s43_i7_j3_k0  rec_s43_edge_7_3_choose_one  1
    y_s43_i7_j3_k0  budget_K  -3.0100000000000002e+00
    y_s43_i7_j3_k1  rec_s43_edge_7_3_choose_one  1
    y_s43_i7_j3_k1  budget_K  1.09
    y_s43_i7_j3_k2  rec_s43_edge_7_3_choose_one  1
    y_s43_i7_j3_k2  budget_K  -2.67
    y_s43_i8_j10_k0  rec_s43_edge_8_10_choose_one  1
    y_s43_i8_j10_k0  budget_K  21.85
    y_s43_i8_j10_k1  rec_s43_edge_8_10_choose_one  1
    y_s43_i8_j10_k1  budget_K  -6.04
    y_s43_i8_j10_k2  rec_s43_edge_8_10_choose_one  1
    y_s43_i8_j10_k2  budget_K  56.94
    y_s43_i9_j6_k0  rec_s43_edge_9_6_choose_one  1
    y_s43_i9_j6_k0  budget_K  -11.69
    y_s43_i9_j6_k1  rec_s43_edge_9_6_choose_one  1
    y_s43_i9_j6_k1  budget_K  -7.99
    y_s43_i9_j6_k2  rec_s43_edge_9_6_choose_one  1
    y_s43_i9_j6_k2  budget_K  -3.43
    y_s43_i10_j5_k0  rec_s43_edge_10_5_choose_one  1
    y_s43_i10_j5_k0  budget_K  -7.18
    y_s43_i10_j5_k1  rec_s43_edge_10_5_choose_one  1
    y_s43_i10_j5_k1  budget_K  -5.01
    y_s43_i10_j5_k2  rec_s43_edge_10_5_choose_one  1
    y_s43_i10_j5_k2  budget_K  -5.5600000000000005e+00
    y_s43_i11_j8_k0  rec_s43_edge_11_8_choose_one  1
    y_s43_i11_j8_k0  budget_K  -4.28
    y_s43_i11_j8_k1  rec_s43_edge_11_8_choose_one  1
    y_s43_i11_j8_k1  budget_K  7.63
    y_s43_i11_j8_k2  rec_s43_edge_11_8_choose_one  1
    y_s43_i11_j8_k2  budget_K  -2.4
    y_s43_i12_j11_k0  rec_s43_edge_12_11_choose_one  1
    y_s43_i12_j11_k0  budget_K  -1.8900000000000001e+00
    y_s43_i12_j11_k1  rec_s43_edge_12_11_choose_one  1
    y_s43_i12_j11_k1  budget_K  -1.84
    y_s43_i12_j11_k2  rec_s43_edge_12_11_choose_one  1
    y_s43_i12_j11_k2  budget_K  -0.91
    y_s43_i13_j14_k0  rec_s43_edge_13_14_choose_one  1
    y_s43_i13_j14_k0  budget_K  -3.95
    y_s43_i13_j14_k1  rec_s43_edge_13_14_choose_one  1
    y_s43_i13_j14_k1  budget_K  -1.51
    y_s43_i13_j14_k2  rec_s43_edge_13_14_choose_one  1
    y_s43_i13_j14_k2  budget_K  7.49
    y_s43_i14_j12_k0  rec_s43_edge_14_12_choose_one  1
    y_s43_i14_j12_k0  budget_K  -0.68
    y_s43_i14_j12_k1  rec_s43_edge_14_12_choose_one  1
    y_s43_i14_j12_k1  budget_K  7.79
    y_s43_i14_j12_k2  rec_s43_edge_14_12_choose_one  1
    y_s43_i14_j12_k2  budget_K  -9.13
    y_s43_i15_j13_k0  rec_s43_edge_15_13_choose_one  1
    y_s43_i15_j13_k0  budget_K  -5.07
    y_s43_i15_j13_k1  rec_s43_edge_15_13_choose_one  1
    y_s43_i15_j13_k1  budget_K  -15.24
    y_s43_i15_j13_k2  rec_s43_edge_15_13_choose_one  1
    y_s43_i15_j13_k2  budget_K  -6.36
    y_s43_i16_j17_k0  rec_s43_edge_16_17_choose_one  1
    y_s43_i16_j17_k0  budget_K  -3.62
    y_s43_i16_j17_k1  rec_s43_edge_16_17_choose_one  1
    y_s43_i16_j17_k1  budget_K  6.04
    y_s43_i16_j17_k2  rec_s43_edge_16_17_choose_one  1
    y_s43_i16_j17_k2  budget_K  9.39
    y_s43_i17_j38_k0  rec_s43_edge_17_38_choose_one  1
    y_s43_i17_j38_k0  budget_K  -1.5
    y_s43_i17_j38_k1  rec_s43_edge_17_38_choose_one  1
    y_s43_i17_j38_k1  budget_K  -5.84
    y_s43_i17_j38_k2  rec_s43_edge_17_38_choose_one  1
    y_s43_i17_j38_k2  budget_K  -4.87
    y_s43_i18_j20_k0  rec_s43_edge_18_20_choose_one  1
    y_s43_i18_j20_k0  budget_K  0.04
    y_s43_i18_j20_k1  rec_s43_edge_18_20_choose_one  1
    y_s43_i18_j20_k1  budget_K  -2.92
    y_s43_i18_j20_k2  rec_s43_edge_18_20_choose_one  1
    y_s43_i18_j20_k2  budget_K  -2.58
    y_s43_i19_j45_k0  rec_s43_edge_19_45_choose_one  1
    y_s43_i19_j45_k0  budget_K  -1.48
    y_s43_i19_j45_k1  rec_s43_edge_19_45_choose_one  1
    y_s43_i19_j45_k1  budget_K  -1.23
    y_s43_i19_j45_k2  rec_s43_edge_19_45_choose_one  1
    y_s43_i19_j45_k2  budget_K  -2.13
    y_s43_i20_j16_k0  rec_s43_edge_20_16_choose_one  1
    y_s43_i20_j16_k0  budget_K  -9.97
    y_s43_i20_j16_k1  rec_s43_edge_20_16_choose_one  1
    y_s43_i20_j16_k1  budget_K  -12.34
    y_s43_i20_j16_k2  rec_s43_edge_20_16_choose_one  1
    y_s43_i20_j16_k2  budget_K  -2.09
    y_s43_i21_j24_k0  rec_s43_edge_21_24_choose_one  1
    y_s43_i21_j24_k0  budget_K  -3.95
    y_s43_i21_j24_k1  rec_s43_edge_21_24_choose_one  1
    y_s43_i21_j24_k1  budget_K  -1.97
    y_s43_i21_j24_k2  rec_s43_edge_21_24_choose_one  1
    y_s43_i21_j24_k2  budget_K  5.11
    y_s43_i22_j21_k0  rec_s43_edge_22_21_choose_one  1
    y_s43_i22_j21_k0  budget_K  -6.36
    y_s43_i22_j21_k1  rec_s43_edge_22_21_choose_one  1
    y_s43_i22_j21_k1  budget_K  -2.19
    y_s43_i22_j21_k2  rec_s43_edge_22_21_choose_one  1
    y_s43_i22_j21_k2  budget_K  -6.47
    y_s43_i23_j46_k0  rec_s43_edge_23_46_choose_one  1
    y_s43_i23_j46_k0  budget_K  0.77
    y_s43_i23_j46_k1  rec_s43_edge_23_46_choose_one  1
    y_s43_i23_j46_k1  budget_K  27.09
    y_s43_i23_j46_k2  rec_s43_edge_23_46_choose_one  1
    y_s43_i23_j46_k2  budget_K  -6.16
    y_s43_i24_j23_k0  rec_s43_edge_24_23_choose_one  1
    y_s43_i24_j23_k0  budget_K  -3.56
    y_s43_i24_j23_k1  rec_s43_edge_24_23_choose_one  1
    y_s43_i24_j23_k1  budget_K  -2.9
    y_s43_i24_j23_k2  rec_s43_edge_24_23_choose_one  1
    y_s43_i24_j23_k2  budget_K  -0.87
    y_s43_i25_j31_k0  rec_s43_edge_25_31_choose_one  1
    y_s43_i25_j31_k0  budget_K  -4.99
    y_s43_i25_j31_k1  rec_s43_edge_25_31_choose_one  1
    y_s43_i25_j31_k1  budget_K  -2.02
    y_s43_i25_j31_k2  rec_s43_edge_25_31_choose_one  1
    y_s43_i25_j31_k2  budget_K  -2.71
    y_s43_i26_j27_k0  rec_s43_edge_26_27_choose_one  1
    y_s43_i26_j27_k0  budget_K  -4.03
    y_s43_i26_j27_k1  rec_s43_edge_26_27_choose_one  1
    y_s43_i26_j27_k1  budget_K  -3.48
    y_s43_i26_j27_k2  rec_s43_edge_26_27_choose_one  1
    y_s43_i26_j27_k2  budget_K  -0.56
    y_s43_i27_j28_k0  rec_s43_edge_27_28_choose_one  1
    y_s43_i27_j28_k0  budget_K  -6.8500000000000005e+00
    y_s43_i27_j28_k1  rec_s43_edge_27_28_choose_one  1
    y_s43_i27_j28_k1  budget_K  -2.46
    y_s43_i27_j28_k2  rec_s43_edge_27_28_choose_one  1
    y_s43_i27_j28_k2  budget_K  -8.26
    y_s43_i28_j25_k0  rec_s43_edge_28_25_choose_one  1
    y_s43_i28_j25_k0  budget_K  -5.93
    y_s43_i28_j25_k1  rec_s43_edge_28_25_choose_one  1
    y_s43_i28_j25_k1  budget_K  -4.84
    y_s43_i28_j25_k2  rec_s43_edge_28_25_choose_one  1
    y_s43_i28_j25_k2  budget_K  18.22
    y_s43_i29_j7_k0  rec_s43_edge_29_7_choose_one  1
    y_s43_i29_j7_k0  budget_K  3.72
    y_s43_i29_j7_k1  rec_s43_edge_29_7_choose_one  1
    y_s43_i29_j7_k1  budget_K  -8.3
    y_s43_i29_j7_k2  rec_s43_edge_29_7_choose_one  1
    y_s43_i29_j7_k2  budget_K  -6.73
    y_s43_i30_j29_k0  rec_s43_edge_30_29_choose_one  1
    y_s43_i30_j29_k0  budget_K  -2.77
    y_s43_i30_j29_k1  rec_s43_edge_30_29_choose_one  1
    y_s43_i30_j29_k1  budget_K  -2.71
    y_s43_i30_j29_k2  rec_s43_edge_30_29_choose_one  1
    y_s43_i30_j29_k2  budget_K  2.1
    y_s43_i31_j30_k0  rec_s43_edge_31_30_choose_one  1
    y_s43_i31_j30_k0  budget_K  -2.81
    y_s43_i31_j30_k1  rec_s43_edge_31_30_choose_one  1
    y_s43_i31_j30_k1  budget_K  -2.7600000000000002e+00
    y_s43_i31_j30_k2  rec_s43_edge_31_30_choose_one  1
    y_s43_i31_j30_k2  budget_K  -0.32
    y_s43_i32_j40_k0  rec_s43_edge_32_40_choose_one  1
    y_s43_i32_j40_k0  budget_K  -20.98
    y_s43_i32_j40_k1  rec_s43_edge_32_40_choose_one  1
    y_s43_i32_j40_k1  budget_K  -36.26
    y_s43_i32_j40_k2  rec_s43_edge_32_40_choose_one  1
    y_s43_i32_j40_k2  budget_K  -13.94
    y_s43_i33_j35_k0  rec_s43_edge_33_35_choose_one  1
    y_s43_i33_j35_k0  budget_K  4.39
    y_s43_i33_j35_k1  rec_s43_edge_33_35_choose_one  1
    y_s43_i33_j35_k1  budget_K  -6.68
    y_s43_i33_j35_k2  rec_s43_edge_33_35_choose_one  1
    y_s43_i33_j35_k2  budget_K  -4.07
    y_s43_i34_j33_k0  rec_s43_edge_34_33_choose_one  1
    y_s43_i34_j33_k0  budget_K  -1.0790000000000001e+01
    y_s43_i34_j33_k1  rec_s43_edge_34_33_choose_one  1
    y_s43_i34_j33_k1  budget_K  -14.44
    y_s43_i34_j33_k2  rec_s43_edge_34_33_choose_one  1
    y_s43_i34_j33_k2  budget_K  -1.95
    y_s43_i35_j32_k0  rec_s43_edge_35_32_choose_one  1
    y_s43_i35_j32_k0  budget_K  -11.96
    y_s43_i35_j32_k1  rec_s43_edge_35_32_choose_one  1
    y_s43_i35_j32_k1  budget_K  -13.42
    y_s43_i35_j32_k2  rec_s43_edge_35_32_choose_one  1
    y_s43_i35_j32_k2  budget_K  -11.98
    y_s43_i36_j49_k0  rec_s43_edge_36_49_choose_one  1
    y_s43_i36_j49_k0  budget_K  -1.4000000000000001e+00
    y_s43_i36_j49_k1  rec_s43_edge_36_49_choose_one  1
    y_s43_i36_j49_k1  budget_K  -1.97
    y_s43_i36_j49_k2  rec_s43_edge_36_49_choose_one  1
    y_s43_i36_j49_k2  budget_K  -2.15
    y_s43_i37_j39_k0  rec_s43_edge_37_39_choose_one  1
    y_s43_i37_j39_k0  budget_K  953.82
    y_s43_i37_j39_k1  rec_s43_edge_37_39_choose_one  1
    y_s43_i37_j39_k1  budget_K  -4.7730000000000004e+01
    y_s43_i37_j39_k2  rec_s43_edge_37_39_choose_one  1
    y_s43_i37_j39_k2  budget_K  309.47
    y_s43_i38_j15_k0  rec_s43_edge_38_15_choose_one  1
    y_s43_i38_j15_k0  budget_K  -6.09
    y_s43_i38_j15_k1  rec_s43_edge_38_15_choose_one  1
    y_s43_i38_j15_k1  budget_K  -8.3
    y_s43_i38_j15_k2  rec_s43_edge_38_15_choose_one  1
    y_s43_i38_j15_k2  budget_K  -8.58
    y_s43_i39_j53_k0  rec_s43_edge_39_53_choose_one  1
    y_s43_i39_j53_k0  budget_K  -13.86
    y_s43_i39_j53_k1  rec_s43_edge_39_53_choose_one  1
    y_s43_i39_j53_k1  budget_K  -27.28
    y_s43_i39_j53_k2  rec_s43_edge_39_53_choose_one  1
    y_s43_i39_j53_k2  budget_K  -0.42
    y_s43_i40_j37_k0  rec_s43_edge_40_37_choose_one  1
    y_s43_i40_j37_k0  budget_K  -7.08
    y_s43_i40_j37_k1  rec_s43_edge_40_37_choose_one  1
    y_s43_i40_j37_k1  budget_K  -9.25
    y_s43_i40_j37_k2  rec_s43_edge_40_37_choose_one  1
    y_s43_i40_j37_k2  budget_K  -1.31
    y_s43_i41_j4_k0  rec_s43_edge_41_4_choose_one  1
    y_s43_i41_j4_k0  budget_K  -4.8500000000000005e+00
    y_s43_i41_j4_k1  rec_s43_edge_41_4_choose_one  1
    y_s43_i41_j4_k1  budget_K  1.19
    y_s43_i41_j4_k2  rec_s43_edge_41_4_choose_one  1
    y_s43_i41_j4_k2  budget_K  -3.44
    y_s43_i42_j44_k0  rec_s43_edge_42_44_choose_one  1
    y_s43_i42_j44_k0  budget_K  78.34
    y_s43_i42_j44_k1  rec_s43_edge_42_44_choose_one  1
    y_s43_i42_j44_k1  budget_K  0.17
    y_s43_i42_j44_k2  rec_s43_edge_42_44_choose_one  1
    y_s43_i42_j44_k2  budget_K  -3.14
    y_s43_i43_j19_k0  rec_s43_edge_43_19_choose_one  1
    y_s43_i43_j19_k0  budget_K  -15
    y_s43_i43_j19_k1  rec_s43_edge_43_19_choose_one  1
    y_s43_i43_j19_k1  budget_K  -12.68
    y_s43_i43_j19_k2  rec_s43_edge_43_19_choose_one  1
    y_s43_i43_j19_k2  budget_K  -9.3700000000000010e+00
    y_s43_i44_j50_k0  rec_s43_edge_44_50_choose_one  1
    y_s43_i44_j50_k0  budget_K  -1.2790000000000001e+01
    y_s43_i44_j50_k1  rec_s43_edge_44_50_choose_one  1
    y_s43_i44_j50_k1  budget_K  51.88
    y_s43_i44_j50_k2  rec_s43_edge_44_50_choose_one  1
    y_s43_i44_j50_k2  budget_K  12.3
    y_s43_i45_j18_k0  rec_s43_edge_45_18_choose_one  1
    y_s43_i45_j18_k0  budget_K  -9.25
    y_s43_i45_j18_k1  rec_s43_edge_45_18_choose_one  1
    y_s43_i45_j18_k1  budget_K  22.89
    y_s43_i45_j18_k2  rec_s43_edge_45_18_choose_one  1
    y_s43_i45_j18_k2  budget_K  14.55
    y_s43_i46_j42_k0  rec_s43_edge_46_42_choose_one  1
    y_s43_i46_j42_k0  budget_K  0.58
    y_s43_i46_j42_k1  rec_s43_edge_46_42_choose_one  1
    y_s43_i46_j42_k1  budget_K  -9.47
    y_s43_i46_j42_k2  rec_s43_edge_46_42_choose_one  1
    y_s43_i46_j42_k2  budget_K  -10.14
    y_s43_i47_j41_k0  rec_s43_edge_47_41_choose_one  1
    y_s43_i47_j41_k0  budget_K  -9.22
    y_s43_i47_j41_k1  rec_s43_edge_47_41_choose_one  1
    y_s43_i47_j41_k1  budget_K  1.4000000000000001e+00
    y_s43_i47_j41_k2  rec_s43_edge_47_41_choose_one  1
    y_s43_i47_j41_k2  budget_K  -14.89
    y_s43_i48_j51_k0  rec_s43_edge_48_51_choose_one  1
    y_s43_i48_j51_k0  budget_K  -9.66
    y_s43_i48_j51_k1  rec_s43_edge_48_51_choose_one  1
    y_s43_i48_j51_k1  budget_K  -11.06
    y_s43_i48_j51_k2  rec_s43_edge_48_51_choose_one  1
    y_s43_i48_j51_k2  budget_K  -10.28
    y_s43_i49_j26_k0  rec_s43_edge_49_26_choose_one  1
    y_s43_i49_j26_k0  budget_K  -2.5500000000000003e+00
    y_s43_i49_j26_k1  rec_s43_edge_49_26_choose_one  1
    y_s43_i49_j26_k1  budget_K  -4.89
    y_s43_i49_j26_k2  rec_s43_edge_49_26_choose_one  1
    y_s43_i49_j26_k2  budget_K  6.19
    y_s43_i50_j48_k0  rec_s43_edge_50_48_choose_one  1
    y_s43_i50_j48_k0  budget_K  -10.22
    y_s43_i50_j48_k1  rec_s43_edge_50_48_choose_one  1
    y_s43_i50_j48_k1  budget_K  -10.3
    y_s43_i50_j48_k2  rec_s43_edge_50_48_choose_one  1
    y_s43_i50_j48_k2  budget_K  -10.78
    y_s43_i51_j36_k0  rec_s43_edge_51_36_choose_one  1
    y_s43_i51_j36_k0  budget_K  -2.7830000000000002e+01
    y_s43_i51_j36_k1  rec_s43_edge_51_36_choose_one  1
    y_s43_i51_j36_k1  budget_K  -16.81
    y_s43_i51_j36_k2  rec_s43_edge_51_36_choose_one  1
    y_s43_i51_j36_k2  budget_K  -1.9900000000000002e+01
    y_s43_i52_j47_k0  rec_s43_edge_52_47_choose_one  1
    y_s43_i52_j47_k0  budget_K  -9.34
    y_s43_i52_j47_k1  rec_s43_edge_52_47_choose_one  1
    y_s43_i52_j47_k1  budget_K  -1.27
    y_s43_i52_j47_k2  rec_s43_edge_52_47_choose_one  1
    y_s43_i52_j47_k2  budget_K  4.5
    y_s43_i53_j43_k0  rec_s43_edge_53_43_choose_one  1
    y_s43_i53_j43_k0  budget_K  -3.15
    y_s43_i53_j43_k1  rec_s43_edge_53_43_choose_one  1
    y_s43_i53_j43_k1  budget_K  -7.36
    y_s43_i53_j43_k2  rec_s43_edge_53_43_choose_one  1
    y_s43_i53_j43_k2  budget_K  -6.36
    y_s72_i0_j2_k0  rec_s72_edge_0_2_choose_one  1
    y_s72_i0_j2_k0  budget_K  -0.8
    y_s72_i0_j2_k1  rec_s72_edge_0_2_choose_one  1
    y_s72_i0_j2_k1  budget_K  -0.49
    y_s72_i0_j2_k2  rec_s72_edge_0_2_choose_one  1
    y_s72_i0_j2_k2  budget_K  -0.52
    y_s72_i1_j22_k0  rec_s72_edge_1_22_choose_one  1
    y_s72_i1_j22_k0  budget_K  4.14
    y_s72_i1_j22_k1  rec_s72_edge_1_22_choose_one  1
    y_s72_i1_j22_k1  budget_K  1.12
    y_s72_i1_j22_k2  rec_s72_edge_1_22_choose_one  1
    y_s72_i1_j22_k2  budget_K  -2.57
    y_s72_i2_j1_k0  rec_s72_edge_2_1_choose_one  1
    y_s72_i2_j1_k0  budget_K  1.3
    y_s72_i2_j1_k1  rec_s72_edge_2_1_choose_one  1
    y_s72_i2_j1_k1  budget_K  -0.93
    y_s72_i2_j1_k2  rec_s72_edge_2_1_choose_one  1
    y_s72_i2_j1_k2  budget_K  -1.3900000000000001e+00
    y_s72_i3_j9_k0  rec_s72_edge_3_9_choose_one  1
    y_s72_i3_j9_k0  budget_K  30.88
    y_s72_i3_j9_k1  rec_s72_edge_3_9_choose_one  1
    y_s72_i3_j9_k1  budget_K  24.05
    y_s72_i3_j9_k2  rec_s72_edge_3_9_choose_one  1
    y_s72_i3_j9_k2  budget_K  -11.69
    y_s72_i4_j34_k0  rec_s72_edge_4_34_choose_one  1
    y_s72_i4_j34_k0  budget_K  -1.7080000000000002e+01
    y_s72_i4_j34_k1  rec_s72_edge_4_34_choose_one  1
    y_s72_i4_j34_k1  budget_K  -0.98
    y_s72_i4_j34_k2  rec_s72_edge_4_34_choose_one  1
    y_s72_i4_j34_k2  budget_K  -15.93
    y_s72_i5_j0_k0  rec_s72_edge_5_0_choose_one  1
    y_s72_i5_j0_k0  budget_K  -5.73
    y_s72_i5_j0_k1  rec_s72_edge_5_0_choose_one  1
    y_s72_i5_j0_k1  budget_K  -4.7700000000000005e+00
    y_s72_i5_j0_k2  rec_s72_edge_5_0_choose_one  1
    y_s72_i5_j0_k2  budget_K  -4.61
    y_s72_i6_j52_k0  rec_s72_edge_6_52_choose_one  1
    y_s72_i6_j52_k0  budget_K  -5
    y_s72_i6_j52_k1  rec_s72_edge_6_52_choose_one  1
    y_s72_i6_j52_k1  budget_K  -8.24
    y_s72_i6_j52_k2  rec_s72_edge_6_52_choose_one  1
    y_s72_i6_j52_k2  budget_K  -9.89
    y_s72_i7_j3_k0  rec_s72_edge_7_3_choose_one  1
    y_s72_i7_j3_k0  budget_K  9.8700000000000010e+00
    y_s72_i7_j3_k1  rec_s72_edge_7_3_choose_one  1
    y_s72_i7_j3_k1  budget_K  -2.31
    y_s72_i7_j3_k2  rec_s72_edge_7_3_choose_one  1
    y_s72_i7_j3_k2  budget_K  -2.2
    y_s72_i8_j10_k0  rec_s72_edge_8_10_choose_one  1
    y_s72_i8_j10_k0  budget_K  7.0200000000000005e+00
    y_s72_i8_j10_k1  rec_s72_edge_8_10_choose_one  1
    y_s72_i8_j10_k1  budget_K  71.39
    y_s72_i8_j10_k2  rec_s72_edge_8_10_choose_one  1
    y_s72_i8_j10_k2  budget_K  -5.19
    y_s72_i9_j6_k0  rec_s72_edge_9_6_choose_one  1
    y_s72_i9_j6_k0  budget_K  -6.7700000000000005e+00
    y_s72_i9_j6_k1  rec_s72_edge_9_6_choose_one  1
    y_s72_i9_j6_k1  budget_K  -8.3
    y_s72_i9_j6_k2  rec_s72_edge_9_6_choose_one  1
    y_s72_i9_j6_k2  budget_K  -9.18
    y_s72_i10_j5_k0  rec_s72_edge_10_5_choose_one  1
    y_s72_i10_j5_k0  budget_K  2.24
    y_s72_i10_j5_k1  rec_s72_edge_10_5_choose_one  1
    y_s72_i10_j5_k1  budget_K  -2.11
    y_s72_i10_j5_k2  rec_s72_edge_10_5_choose_one  1
    y_s72_i10_j5_k2  budget_K  3.0580000000000002e+01
    y_s72_i11_j8_k0  rec_s72_edge_11_8_choose_one  1
    y_s72_i11_j8_k0  budget_K  -4.07
    y_s72_i11_j8_k1  rec_s72_edge_11_8_choose_one  1
    y_s72_i11_j8_k1  budget_K  -3.12
    y_s72_i11_j8_k2  rec_s72_edge_11_8_choose_one  1
    y_s72_i11_j8_k2  budget_K  -3.8200000000000003e+00
    y_s72_i12_j11_k0  rec_s72_edge_12_11_choose_one  1
    y_s72_i12_j11_k0  budget_K  -0.55
    y_s72_i12_j11_k1  rec_s72_edge_12_11_choose_one  1
    y_s72_i12_j11_k1  budget_K  -1.08
    y_s72_i12_j11_k2  rec_s72_edge_12_11_choose_one  1
    y_s72_i12_j11_k2  budget_K  -0.98
    y_s72_i13_j14_k0  rec_s72_edge_13_14_choose_one  1
    y_s72_i13_j14_k0  budget_K  26.05
    y_s72_i13_j14_k1  rec_s72_edge_13_14_choose_one  1
    y_s72_i13_j14_k1  budget_K  1.1500000000000001e+00
    y_s72_i13_j14_k2  rec_s72_edge_13_14_choose_one  1
    y_s72_i13_j14_k2  budget_K  -3.97
    y_s72_i14_j12_k0  rec_s72_edge_14_12_choose_one  1
    y_s72_i14_j12_k0  budget_K  -8.7000000000000011e+00
    y_s72_i14_j12_k1  rec_s72_edge_14_12_choose_one  1
    y_s72_i14_j12_k1  budget_K  3.2600000000000002e+00
    y_s72_i14_j12_k2  rec_s72_edge_14_12_choose_one  1
    y_s72_i14_j12_k2  budget_K  -6.3100000000000005e+00
    y_s72_i15_j13_k0  rec_s72_edge_15_13_choose_one  1
    y_s72_i15_j13_k0  budget_K  -11.67
    y_s72_i15_j13_k1  rec_s72_edge_15_13_choose_one  1
    y_s72_i15_j13_k1  budget_K  -10.32
    y_s72_i15_j13_k2  rec_s72_edge_15_13_choose_one  1
    y_s72_i15_j13_k2  budget_K  -6.91
    y_s72_i16_j17_k0  rec_s72_edge_16_17_choose_one  1
    y_s72_i16_j17_k0  budget_K  -3.86
    y_s72_i16_j17_k1  rec_s72_edge_16_17_choose_one  1
    y_s72_i16_j17_k1  budget_K  -7.13
    y_s72_i16_j17_k2  rec_s72_edge_16_17_choose_one  1
    y_s72_i16_j17_k2  budget_K  -3.37
    y_s72_i17_j38_k0  rec_s72_edge_17_38_choose_one  1
    y_s72_i17_j38_k0  budget_K  -1.53
    y_s72_i17_j38_k1  rec_s72_edge_17_38_choose_one  1
    y_s72_i17_j38_k1  budget_K  -3.1
    y_s72_i17_j38_k2  rec_s72_edge_17_38_choose_one  1
    y_s72_i17_j38_k2  budget_K  1.93
    y_s72_i18_j20_k0  rec_s72_edge_18_20_choose_one  1
    y_s72_i18_j20_k0  budget_K  -2.75
    y_s72_i18_j20_k1  rec_s72_edge_18_20_choose_one  1
    y_s72_i18_j20_k1  budget_K  -0.39
    y_s72_i18_j20_k2  rec_s72_edge_18_20_choose_one  1
    y_s72_i18_j20_k2  budget_K  -0.33
    y_s72_i19_j45_k0  rec_s72_edge_19_45_choose_one  1
    y_s72_i19_j45_k0  budget_K  -1.04
    y_s72_i19_j45_k1  rec_s72_edge_19_45_choose_one  1
    y_s72_i19_j45_k1  budget_K  -1.94
    y_s72_i19_j45_k2  rec_s72_edge_19_45_choose_one  1
    y_s72_i19_j45_k2  budget_K  3.1
    y_s72_i20_j16_k0  rec_s72_edge_20_16_choose_one  1
    y_s72_i20_j16_k0  budget_K  -9.2000000000000011e+00
    y_s72_i20_j16_k1  rec_s72_edge_20_16_choose_one  1
    y_s72_i20_j16_k1  budget_K  -12.47
    y_s72_i20_j16_k2  rec_s72_edge_20_16_choose_one  1
    y_s72_i20_j16_k2  budget_K  11.91
    y_s72_i21_j24_k0  rec_s72_edge_21_24_choose_one  1
    y_s72_i21_j24_k0  budget_K  -1.8900000000000001e+00
    y_s72_i21_j24_k1  rec_s72_edge_21_24_choose_one  1
    y_s72_i21_j24_k1  budget_K  3.68
    y_s72_i21_j24_k2  rec_s72_edge_21_24_choose_one  1
    y_s72_i21_j24_k2  budget_K  -4.28
    y_s72_i22_j21_k0  rec_s72_edge_22_21_choose_one  1
    y_s72_i22_j21_k0  budget_K  -3.47
    y_s72_i22_j21_k1  rec_s72_edge_22_21_choose_one  1
    y_s72_i22_j21_k1  budget_K  -5.3
    y_s72_i22_j21_k2  rec_s72_edge_22_21_choose_one  1
    y_s72_i22_j21_k2  budget_K  -1.56
    y_s72_i23_j46_k0  rec_s72_edge_23_46_choose_one  1
    y_s72_i23_j46_k0  budget_K  -3.21
    y_s72_i23_j46_k1  rec_s72_edge_23_46_choose_one  1
    y_s72_i23_j46_k1  budget_K  21.32
    y_s72_i23_j46_k2  rec_s72_edge_23_46_choose_one  1
    y_s72_i23_j46_k2  budget_K  21.53
    y_s72_i24_j23_k0  rec_s72_edge_24_23_choose_one  1
    y_s72_i24_j23_k0  budget_K  -2.6
    y_s72_i24_j23_k1  rec_s72_edge_24_23_choose_one  1
    y_s72_i24_j23_k1  budget_K  -0.98
    y_s72_i24_j23_k2  rec_s72_edge_24_23_choose_one  1
    y_s72_i24_j23_k2  budget_K  -0.99
    y_s72_i25_j31_k0  rec_s72_edge_25_31_choose_one  1
    y_s72_i25_j31_k0  budget_K  -4.89
    y_s72_i25_j31_k1  rec_s72_edge_25_31_choose_one  1
    y_s72_i25_j31_k1  budget_K  -5.64
    y_s72_i25_j31_k2  rec_s72_edge_25_31_choose_one  1
    y_s72_i25_j31_k2  budget_K  -5.58
    y_s72_i26_j27_k0  rec_s72_edge_26_27_choose_one  1
    y_s72_i26_j27_k0  budget_K  -4.62
    y_s72_i26_j27_k1  rec_s72_edge_26_27_choose_one  1
    y_s72_i26_j27_k1  budget_K  -1.76
    y_s72_i26_j27_k2  rec_s72_edge_26_27_choose_one  1
    y_s72_i26_j27_k2  budget_K  -3.1
    y_s72_i27_j28_k0  rec_s72_edge_27_28_choose_one  1
    y_s72_i27_j28_k0  budget_K  -8.32
    y_s72_i27_j28_k1  rec_s72_edge_27_28_choose_one  1
    y_s72_i27_j28_k1  budget_K  -3.41
    y_s72_i27_j28_k2  rec_s72_edge_27_28_choose_one  1
    y_s72_i27_j28_k2  budget_K  -5.92
    y_s72_i28_j25_k0  rec_s72_edge_28_25_choose_one  1
    y_s72_i28_j25_k0  budget_K  -2.5
    y_s72_i28_j25_k1  rec_s72_edge_28_25_choose_one  1
    y_s72_i28_j25_k1  budget_K  -5.3500000000000005e+00
    y_s72_i28_j25_k2  rec_s72_edge_28_25_choose_one  1
    y_s72_i28_j25_k2  budget_K  -5.44
    y_s72_i29_j7_k0  rec_s72_edge_29_7_choose_one  1
    y_s72_i29_j7_k0  budget_K  10.67
    y_s72_i29_j7_k1  rec_s72_edge_29_7_choose_one  1
    y_s72_i29_j7_k1  budget_K  -7.76
    y_s72_i29_j7_k2  rec_s72_edge_29_7_choose_one  1
    y_s72_i29_j7_k2  budget_K  -8.2000000000000006e-01
    y_s72_i30_j29_k0  rec_s72_edge_30_29_choose_one  1
    y_s72_i30_j29_k0  budget_K  -2.12
    y_s72_i30_j29_k1  rec_s72_edge_30_29_choose_one  1
    y_s72_i30_j29_k1  budget_K  11.36
    y_s72_i30_j29_k2  rec_s72_edge_30_29_choose_one  1
    y_s72_i30_j29_k2  budget_K  -1.43
    y_s72_i31_j30_k0  rec_s72_edge_31_30_choose_one  1
    y_s72_i31_j30_k0  budget_K  -2.43
    y_s72_i31_j30_k1  rec_s72_edge_31_30_choose_one  1
    y_s72_i31_j30_k1  budget_K  -3.69
    y_s72_i31_j30_k2  rec_s72_edge_31_30_choose_one  1
    y_s72_i31_j30_k2  budget_K  -1.6
    y_s72_i32_j40_k0  rec_s72_edge_32_40_choose_one  1
    y_s72_i32_j40_k0  budget_K  -3.4480000000000004e+01
    y_s72_i32_j40_k1  rec_s72_edge_32_40_choose_one  1
    y_s72_i32_j40_k1  budget_K  -17.79
    y_s72_i32_j40_k2  rec_s72_edge_32_40_choose_one  1
    y_s72_i32_j40_k2  budget_K  -26.18
    y_s72_i33_j35_k0  rec_s72_edge_33_35_choose_one  1
    y_s72_i33_j35_k0  budget_K  -6.44
    y_s72_i33_j35_k1  rec_s72_edge_33_35_choose_one  1
    y_s72_i33_j35_k1  budget_K  -3.18
    y_s72_i33_j35_k2  rec_s72_edge_33_35_choose_one  1
    y_s72_i33_j35_k2  budget_K  -5.91
    y_s72_i34_j33_k0  rec_s72_edge_34_33_choose_one  1
    y_s72_i34_j33_k0  budget_K  -7.8900000000000006e+00
    y_s72_i34_j33_k1  rec_s72_edge_34_33_choose_one  1
    y_s72_i34_j33_k1  budget_K  -11.71
    y_s72_i34_j33_k2  rec_s72_edge_34_33_choose_one  1
    y_s72_i34_j33_k2  budget_K  1.1582000000000001e+02
    y_s72_i35_j32_k0  rec_s72_edge_35_32_choose_one  1
    y_s72_i35_j32_k0  budget_K  -2.42
    y_s72_i35_j32_k1  rec_s72_edge_35_32_choose_one  1
    y_s72_i35_j32_k1  budget_K  -1.5610000000000001e+01
    y_s72_i35_j32_k2  rec_s72_edge_35_32_choose_one  1
    y_s72_i35_j32_k2  budget_K  -7.6400000000000006e+00
    y_s72_i36_j49_k0  rec_s72_edge_36_49_choose_one  1
    y_s72_i36_j49_k0  budget_K  -2.32
    y_s72_i36_j49_k1  rec_s72_edge_36_49_choose_one  1
    y_s72_i36_j49_k1  budget_K  -2.46
    y_s72_i36_j49_k2  rec_s72_edge_36_49_choose_one  1
    y_s72_i36_j49_k2  budget_K  -2.22
    y_s72_i37_j39_k0  rec_s72_edge_37_39_choose_one  1
    y_s72_i37_j39_k0  budget_K  12.88
    y_s72_i37_j39_k1  rec_s72_edge_37_39_choose_one  1
    y_s72_i37_j39_k1  budget_K  12.01
    y_s72_i37_j39_k2  rec_s72_edge_37_39_choose_one  1
    y_s72_i37_j39_k2  budget_K  -42.24
    y_s72_i38_j15_k0  rec_s72_edge_38_15_choose_one  1
    y_s72_i38_j15_k0  budget_K  -5.63
    y_s72_i38_j15_k1  rec_s72_edge_38_15_choose_one  1
    y_s72_i38_j15_k1  budget_K  4.04
    y_s72_i38_j15_k2  rec_s72_edge_38_15_choose_one  1
    y_s72_i38_j15_k2  budget_K  -4.76
    y_s72_i39_j53_k0  rec_s72_edge_39_53_choose_one  1
    y_s72_i39_j53_k0  budget_K  -25.86
    y_s72_i39_j53_k1  rec_s72_edge_39_53_choose_one  1
    y_s72_i39_j53_k1  budget_K  35.53
    y_s72_i39_j53_k2  rec_s72_edge_39_53_choose_one  1
    y_s72_i39_j53_k2  budget_K  -2.6740000000000002e+01
    y_s72_i40_j37_k0  rec_s72_edge_40_37_choose_one  1
    y_s72_i40_j37_k0  budget_K  -23.81
    y_s72_i40_j37_k1  rec_s72_edge_40_37_choose_one  1
    y_s72_i40_j37_k1  budget_K  42.27
    y_s72_i40_j37_k2  rec_s72_edge_40_37_choose_one  1
    y_s72_i40_j37_k2  budget_K  -27.35
    y_s72_i41_j4_k0  rec_s72_edge_41_4_choose_one  1
    y_s72_i41_j4_k0  budget_K  -1.84
    y_s72_i41_j4_k1  rec_s72_edge_41_4_choose_one  1
    y_s72_i41_j4_k1  budget_K  -5.01
    y_s72_i41_j4_k2  rec_s72_edge_41_4_choose_one  1
    y_s72_i41_j4_k2  budget_K  -3.3000000000000003e+00
    y_s72_i42_j44_k0  rec_s72_edge_42_44_choose_one  1
    y_s72_i42_j44_k0  budget_K  -10.26
    y_s72_i42_j44_k1  rec_s72_edge_42_44_choose_one  1
    y_s72_i42_j44_k1  budget_K  7.3
    y_s72_i42_j44_k2  rec_s72_edge_42_44_choose_one  1
    y_s72_i42_j44_k2  budget_K  -10.27
    y_s72_i43_j19_k0  rec_s72_edge_43_19_choose_one  1
    y_s72_i43_j19_k0  budget_K  -9.99
    y_s72_i43_j19_k1  rec_s72_edge_43_19_choose_one  1
    y_s72_i43_j19_k1  budget_K  2.57
    y_s72_i43_j19_k2  rec_s72_edge_43_19_choose_one  1
    y_s72_i43_j19_k2  budget_K  -8.44
    y_s72_i44_j50_k0  rec_s72_edge_44_50_choose_one  1
    y_s72_i44_j50_k0  budget_K  -2.2150000000000002e+01
    y_s72_i44_j50_k1  rec_s72_edge_44_50_choose_one  1
    y_s72_i44_j50_k1  budget_K  -18.37
    y_s72_i44_j50_k2  rec_s72_edge_44_50_choose_one  1
    y_s72_i44_j50_k2  budget_K  2.98
    y_s72_i45_j18_k0  rec_s72_edge_45_18_choose_one  1
    y_s72_i45_j18_k0  budget_K  -5.32
    y_s72_i45_j18_k1  rec_s72_edge_45_18_choose_one  1
    y_s72_i45_j18_k1  budget_K  -2.71
    y_s72_i45_j18_k2  rec_s72_edge_45_18_choose_one  1
    y_s72_i45_j18_k2  budget_K  59.83
    y_s72_i46_j42_k0  rec_s72_edge_46_42_choose_one  1
    y_s72_i46_j42_k0  budget_K  -9.08
    y_s72_i46_j42_k1  rec_s72_edge_46_42_choose_one  1
    y_s72_i46_j42_k1  budget_K  -4.98
    y_s72_i46_j42_k2  rec_s72_edge_46_42_choose_one  1
    y_s72_i46_j42_k2  budget_K  -1.0290000000000001e+01
    y_s72_i47_j41_k0  rec_s72_edge_47_41_choose_one  1
    y_s72_i47_j41_k0  budget_K  -9.26
    y_s72_i47_j41_k1  rec_s72_edge_47_41_choose_one  1
    y_s72_i47_j41_k1  budget_K  2.4060000000000002e+01
    y_s72_i47_j41_k2  rec_s72_edge_47_41_choose_one  1
    y_s72_i47_j41_k2  budget_K  52.34
    y_s72_i48_j51_k0  rec_s72_edge_48_51_choose_one  1
    y_s72_i48_j51_k0  budget_K  -8.14
    y_s72_i48_j51_k1  rec_s72_edge_48_51_choose_one  1
    y_s72_i48_j51_k1  budget_K  -7.1400000000000006e+00
    y_s72_i48_j51_k2  rec_s72_edge_48_51_choose_one  1
    y_s72_i48_j51_k2  budget_K  -10.3
    y_s72_i49_j26_k0  rec_s72_edge_49_26_choose_one  1
    y_s72_i49_j26_k0  budget_K  -5.42
    y_s72_i49_j26_k1  rec_s72_edge_49_26_choose_one  1
    y_s72_i49_j26_k1  budget_K  1.3290000000000001e+01
    y_s72_i49_j26_k2  rec_s72_edge_49_26_choose_one  1
    y_s72_i49_j26_k2  budget_K  -6.09
    y_s72_i50_j48_k0  rec_s72_edge_50_48_choose_one  1
    y_s72_i50_j48_k0  budget_K  -14.66
    y_s72_i50_j48_k1  rec_s72_edge_50_48_choose_one  1
    y_s72_i50_j48_k1  budget_K  22.53
    y_s72_i50_j48_k2  rec_s72_edge_50_48_choose_one  1
    y_s72_i50_j48_k2  budget_K  32.06
    y_s72_i51_j36_k0  rec_s72_edge_51_36_choose_one  1
    y_s72_i51_j36_k0  budget_K  -22.04
    y_s72_i51_j36_k1  rec_s72_edge_51_36_choose_one  1
    y_s72_i51_j36_k1  budget_K  -27.59
    y_s72_i51_j36_k2  rec_s72_edge_51_36_choose_one  1
    y_s72_i51_j36_k2  budget_K  -8.61
    y_s72_i52_j47_k0  rec_s72_edge_52_47_choose_one  1
    y_s72_i52_j47_k0  budget_K  -7.6400000000000006e+00
    y_s72_i52_j47_k1  rec_s72_edge_52_47_choose_one  1
    y_s72_i52_j47_k1  budget_K  -8.58
    y_s72_i52_j47_k2  rec_s72_edge_52_47_choose_one  1
    y_s72_i52_j47_k2  budget_K  -8.65
    y_s72_i53_j43_k0  rec_s72_edge_53_43_choose_one  1
    y_s72_i53_j43_k0  budget_K  -5.87
    y_s72_i53_j43_k1  rec_s72_edge_53_43_choose_one  1
    y_s72_i53_j43_k1  budget_K  -5.22
    y_s72_i53_j43_k2  rec_s72_edge_53_43_choose_one  1
    y_s72_i53_j43_k2  budget_K  -3.5700000000000003e+00
    MARKER    'MARKER'                 'INTEND'
RHS
    RHS1      rec_s67_edge_0_2_choose_one  1
    RHS1      rec_s67_edge_1_22_choose_one  1
    RHS1      rec_s67_edge_2_1_choose_one  1
    RHS1      rec_s67_edge_3_9_choose_one  1
    RHS1      rec_s67_edge_4_34_choose_one  1
    RHS1      rec_s67_edge_5_0_choose_one  1
    RHS1      rec_s67_edge_6_52_choose_one  1
    RHS1      rec_s67_edge_7_3_choose_one  1
    RHS1      rec_s67_edge_8_10_choose_one  1
    RHS1      rec_s67_edge_9_6_choose_one  1
    RHS1      rec_s67_edge_10_5_choose_one  1
    RHS1      rec_s67_edge_11_8_choose_one  1
    RHS1      rec_s67_edge_12_11_choose_one  1
    RHS1      rec_s67_edge_13_14_choose_one  1
    RHS1      rec_s67_edge_14_12_choose_one  1
    RHS1      rec_s67_edge_15_13_choose_one  1
    RHS1      rec_s67_edge_16_17_choose_one  1
    RHS1      rec_s67_edge_17_38_choose_one  1
    RHS1      rec_s67_edge_18_20_choose_one  1
    RHS1      rec_s67_edge_19_45_choose_one  1
    RHS1      rec_s67_edge_20_16_choose_one  1
    RHS1      rec_s67_edge_21_24_choose_one  1
    RHS1      rec_s67_edge_22_21_choose_one  1
    RHS1      rec_s67_edge_23_46_choose_one  1
    RHS1      rec_s67_edge_24_23_choose_one  1
    RHS1      rec_s67_edge_25_31_choose_one  1
    RHS1      rec_s67_edge_26_27_choose_one  1
    RHS1      rec_s67_edge_27_28_choose_one  1
    RHS1      rec_s67_edge_28_25_choose_one  1
    RHS1      rec_s67_edge_29_7_choose_one  1
    RHS1      rec_s67_edge_30_29_choose_one  1
    RHS1      rec_s67_edge_31_30_choose_one  1
    RHS1      rec_s67_edge_32_40_choose_one  1
    RHS1      rec_s67_edge_33_35_choose_one  1
    RHS1      rec_s67_edge_34_33_choose_one  1
    RHS1      rec_s67_edge_35_32_choose_one  1
    RHS1      rec_s67_edge_36_49_choose_one  1
    RHS1      rec_s67_edge_37_39_choose_one  1
    RHS1      rec_s67_edge_38_15_choose_one  1
    RHS1      rec_s67_edge_39_53_choose_one  1
    RHS1      rec_s67_edge_40_37_choose_one  1
    RHS1      rec_s67_edge_41_4_choose_one  1
    RHS1      rec_s67_edge_42_44_choose_one  1
    RHS1      rec_s67_edge_43_19_choose_one  1
    RHS1      rec_s67_edge_44_50_choose_one  1
    RHS1      rec_s67_edge_45_18_choose_one  1
    RHS1      rec_s67_edge_46_42_choose_one  1
    RHS1      rec_s67_edge_47_41_choose_one  1
    RHS1      rec_s67_edge_48_51_choose_one  1
    RHS1      rec_s67_edge_49_26_choose_one  1
    RHS1      rec_s67_edge_50_48_choose_one  1
    RHS1      rec_s67_edge_51_36_choose_one  1
    RHS1      rec_s67_edge_52_47_choose_one  1
    RHS1      rec_s67_edge_53_43_choose_one  1
    RHS1      rec_s80_edge_0_2_choose_one  1
    RHS1      rec_s80_edge_1_22_choose_one  1
    RHS1      rec_s80_edge_2_1_choose_one  1
    RHS1      rec_s80_edge_3_9_choose_one  1
    RHS1      rec_s80_edge_4_34_choose_one  1
    RHS1      rec_s80_edge_5_0_choose_one  1
    RHS1      rec_s80_edge_6_52_choose_one  1
    RHS1      rec_s80_edge_7_3_choose_one  1
    RHS1      rec_s80_edge_8_10_choose_one  1
    RHS1      rec_s80_edge_9_6_choose_one  1
    RHS1      rec_s80_edge_10_5_choose_one  1
    RHS1      rec_s80_edge_11_8_choose_one  1
    RHS1      rec_s80_edge_12_11_choose_one  1
    RHS1      rec_s80_edge_13_14_choose_one  1
    RHS1      rec_s80_edge_14_12_choose_one  1
    RHS1      rec_s80_edge_15_13_choose_one  1
    RHS1      rec_s80_edge_16_17_choose_one  1
    RHS1      rec_s80_edge_17_38_choose_one  1
    RHS1      rec_s80_edge_18_20_choose_one  1
    RHS1      rec_s80_edge_19_45_choose_one  1
    RHS1      rec_s80_edge_20_16_choose_one  1
    RHS1      rec_s80_edge_21_24_choose_one  1
    RHS1      rec_s80_edge_22_21_choose_one  1
    RHS1      rec_s80_edge_23_46_choose_one  1
    RHS1      rec_s80_edge_24_23_choose_one  1
    RHS1      rec_s80_edge_25_31_choose_one  1
    RHS1      rec_s80_edge_26_27_choose_one  1
    RHS1      rec_s80_edge_27_28_choose_one  1
    RHS1      rec_s80_edge_28_25_choose_one  1
    RHS1      rec_s80_edge_29_7_choose_one  1
    RHS1      rec_s80_edge_30_29_choose_one  1
    RHS1      rec_s80_edge_31_30_choose_one  1
    RHS1      rec_s80_edge_32_40_choose_one  1
    RHS1      rec_s80_edge_33_35_choose_one  1
    RHS1      rec_s80_edge_34_33_choose_one  1
    RHS1      rec_s80_edge_35_32_choose_one  1
    RHS1      rec_s80_edge_36_49_choose_one  1
    RHS1      rec_s80_edge_37_39_choose_one  1
    RHS1      rec_s80_edge_38_15_choose_one  1
    RHS1      rec_s80_edge_39_53_choose_one  1
    RHS1      rec_s80_edge_40_37_choose_one  1
    RHS1      rec_s80_edge_41_4_choose_one  1
    RHS1      rec_s80_edge_42_44_choose_one  1
    RHS1      rec_s80_edge_43_19_choose_one  1
    RHS1      rec_s80_edge_44_50_choose_one  1
    RHS1      rec_s80_edge_45_18_choose_one  1
    RHS1      rec_s80_edge_46_42_choose_one  1
    RHS1      rec_s80_edge_47_41_choose_one  1
    RHS1      rec_s80_edge_48_51_choose_one  1
    RHS1      rec_s80_edge_49_26_choose_one  1
    RHS1      rec_s80_edge_50_48_choose_one  1
    RHS1      rec_s80_edge_51_36_choose_one  1
    RHS1      rec_s80_edge_52_47_choose_one  1
    RHS1      rec_s80_edge_53_43_choose_one  1
    RHS1      rec_s55_edge_0_2_choose_one  1
    RHS1      rec_s55_edge_1_22_choose_one  1
    RHS1      rec_s55_edge_2_1_choose_one  1
    RHS1      rec_s55_edge_3_9_choose_one  1
    RHS1      rec_s55_edge_4_34_choose_one  1
    RHS1      rec_s55_edge_5_0_choose_one  1
    RHS1      rec_s55_edge_6_52_choose_one  1
    RHS1      rec_s55_edge_7_3_choose_one  1
    RHS1      rec_s55_edge_8_10_choose_one  1
    RHS1      rec_s55_edge_9_6_choose_one  1
    RHS1      rec_s55_edge_10_5_choose_one  1
    RHS1      rec_s55_edge_11_8_choose_one  1
    RHS1      rec_s55_edge_12_11_choose_one  1
    RHS1      rec_s55_edge_13_14_choose_one  1
    RHS1      rec_s55_edge_14_12_choose_one  1
    RHS1      rec_s55_edge_15_13_choose_one  1
    RHS1      rec_s55_edge_16_17_choose_one  1
    RHS1      rec_s55_edge_17_38_choose_one  1
    RHS1      rec_s55_edge_18_20_choose_one  1
    RHS1      rec_s55_edge_19_45_choose_one  1
    RHS1      rec_s55_edge_20_16_choose_one  1
    RHS1      rec_s55_edge_21_24_choose_one  1
    RHS1      rec_s55_edge_22_21_choose_one  1
    RHS1      rec_s55_edge_23_46_choose_one  1
    RHS1      rec_s55_edge_24_23_choose_one  1
    RHS1      rec_s55_edge_25_31_choose_one  1
    RHS1      rec_s55_edge_26_27_choose_one  1
    RHS1      rec_s55_edge_27_28_choose_one  1
    RHS1      rec_s55_edge_28_25_choose_one  1
    RHS1      rec_s55_edge_29_7_choose_one  1
    RHS1      rec_s55_edge_30_29_choose_one  1
    RHS1      rec_s55_edge_31_30_choose_one  1
    RHS1      rec_s55_edge_32_40_choose_one  1
    RHS1      rec_s55_edge_33_35_choose_one  1
    RHS1      rec_s55_edge_34_33_choose_one  1
    RHS1      rec_s55_edge_35_32_choose_one  1
    RHS1      rec_s55_edge_36_49_choose_one  1
    RHS1      rec_s55_edge_37_39_choose_one  1
    RHS1      rec_s55_edge_38_15_choose_one  1
    RHS1      rec_s55_edge_39_53_choose_one  1
    RHS1      rec_s55_edge_40_37_choose_one  1
    RHS1      rec_s55_edge_41_4_choose_one  1
    RHS1      rec_s55_edge_42_44_choose_one  1
    RHS1      rec_s55_edge_43_19_choose_one  1
    RHS1      rec_s55_edge_44_50_choose_one  1
    RHS1      rec_s55_edge_45_18_choose_one  1
    RHS1      rec_s55_edge_46_42_choose_one  1
    RHS1      rec_s55_edge_47_41_choose_one  1
    RHS1      rec_s55_edge_48_51_choose_one  1
    RHS1      rec_s55_edge_49_26_choose_one  1
    RHS1      rec_s55_edge_50_48_choose_one  1
    RHS1      rec_s55_edge_51_36_choose_one  1
    RHS1      rec_s55_edge_52_47_choose_one  1
    RHS1      rec_s55_edge_53_43_choose_one  1
    RHS1      rec_s4_edge_0_2_choose_one  1
    RHS1      rec_s4_edge_1_22_choose_one  1
    RHS1      rec_s4_edge_2_1_choose_one  1
    RHS1      rec_s4_edge_3_9_choose_one  1
    RHS1      rec_s4_edge_4_34_choose_one  1
    RHS1      rec_s4_edge_5_0_choose_one  1
    RHS1      rec_s4_edge_6_52_choose_one  1
    RHS1      rec_s4_edge_7_3_choose_one  1
    RHS1      rec_s4_edge_8_10_choose_one  1
    RHS1      rec_s4_edge_9_6_choose_one  1
    RHS1      rec_s4_edge_10_5_choose_one  1
    RHS1      rec_s4_edge_11_8_choose_one  1
    RHS1      rec_s4_edge_12_11_choose_one  1
    RHS1      rec_s4_edge_13_14_choose_one  1
    RHS1      rec_s4_edge_14_12_choose_one  1
    RHS1      rec_s4_edge_15_13_choose_one  1
    RHS1      rec_s4_edge_16_17_choose_one  1
    RHS1      rec_s4_edge_17_38_choose_one  1
    RHS1      rec_s4_edge_18_20_choose_one  1
    RHS1      rec_s4_edge_19_45_choose_one  1
    RHS1      rec_s4_edge_20_16_choose_one  1
    RHS1      rec_s4_edge_21_24_choose_one  1
    RHS1      rec_s4_edge_22_21_choose_one  1
    RHS1      rec_s4_edge_23_46_choose_one  1
    RHS1      rec_s4_edge_24_23_choose_one  1
    RHS1      rec_s4_edge_25_31_choose_one  1
    RHS1      rec_s4_edge_26_27_choose_one  1
    RHS1      rec_s4_edge_27_28_choose_one  1
    RHS1      rec_s4_edge_28_25_choose_one  1
    RHS1      rec_s4_edge_29_7_choose_one  1
    RHS1      rec_s4_edge_30_29_choose_one  1
    RHS1      rec_s4_edge_31_30_choose_one  1
    RHS1      rec_s4_edge_32_40_choose_one  1
    RHS1      rec_s4_edge_33_35_choose_one  1
    RHS1      rec_s4_edge_34_33_choose_one  1
    RHS1      rec_s4_edge_35_32_choose_one  1
    RHS1      rec_s4_edge_36_49_choose_one  1
    RHS1      rec_s4_edge_37_39_choose_one  1
    RHS1      rec_s4_edge_38_15_choose_one  1
    RHS1      rec_s4_edge_39_53_choose_one  1
    RHS1      rec_s4_edge_40_37_choose_one  1
    RHS1      rec_s4_edge_41_4_choose_one  1
    RHS1      rec_s4_edge_42_44_choose_one  1
    RHS1      rec_s4_edge_43_19_choose_one  1
    RHS1      rec_s4_edge_44_50_choose_one  1
    RHS1      rec_s4_edge_45_18_choose_one  1
    RHS1      rec_s4_edge_46_42_choose_one  1
    RHS1      rec_s4_edge_47_41_choose_one  1
    RHS1      rec_s4_edge_48_51_choose_one  1
    RHS1      rec_s4_edge_49_26_choose_one  1
    RHS1      rec_s4_edge_50_48_choose_one  1
    RHS1      rec_s4_edge_51_36_choose_one  1
    RHS1      rec_s4_edge_52_47_choose_one  1
    RHS1      rec_s4_edge_53_43_choose_one  1
    RHS1      rec_s5_edge_0_2_choose_one  1
    RHS1      rec_s5_edge_1_22_choose_one  1
    RHS1      rec_s5_edge_2_1_choose_one  1
    RHS1      rec_s5_edge_3_9_choose_one  1
    RHS1      rec_s5_edge_4_34_choose_one  1
    RHS1      rec_s5_edge_5_0_choose_one  1
    RHS1      rec_s5_edge_6_52_choose_one  1
    RHS1      rec_s5_edge_7_3_choose_one  1
    RHS1      rec_s5_edge_8_10_choose_one  1
    RHS1      rec_s5_edge_9_6_choose_one  1
    RHS1      rec_s5_edge_10_5_choose_one  1
    RHS1      rec_s5_edge_11_8_choose_one  1
    RHS1      rec_s5_edge_12_11_choose_one  1
    RHS1      rec_s5_edge_13_14_choose_one  1
    RHS1      rec_s5_edge_14_12_choose_one  1
    RHS1      rec_s5_edge_15_13_choose_one  1
    RHS1      rec_s5_edge_16_17_choose_one  1
    RHS1      rec_s5_edge_17_38_choose_one  1
    RHS1      rec_s5_edge_18_20_choose_one  1
    RHS1      rec_s5_edge_19_45_choose_one  1
    RHS1      rec_s5_edge_20_16_choose_one  1
    RHS1      rec_s5_edge_21_24_choose_one  1
    RHS1      rec_s5_edge_22_21_choose_one  1
    RHS1      rec_s5_edge_23_46_choose_one  1
    RHS1      rec_s5_edge_24_23_choose_one  1
    RHS1      rec_s5_edge_25_31_choose_one  1
    RHS1      rec_s5_edge_26_27_choose_one  1
    RHS1      rec_s5_edge_27_28_choose_one  1
    RHS1      rec_s5_edge_28_25_choose_one  1
    RHS1      rec_s5_edge_29_7_choose_one  1
    RHS1      rec_s5_edge_30_29_choose_one  1
    RHS1      rec_s5_edge_31_30_choose_one  1
    RHS1      rec_s5_edge_32_40_choose_one  1
    RHS1      rec_s5_edge_33_35_choose_one  1
    RHS1      rec_s5_edge_34_33_choose_one  1
    RHS1      rec_s5_edge_35_32_choose_one  1
    RHS1      rec_s5_edge_36_49_choose_one  1
    RHS1      rec_s5_edge_37_39_choose_one  1
    RHS1      rec_s5_edge_38_15_choose_one  1
    RHS1      rec_s5_edge_39_53_choose_one  1
    RHS1      rec_s5_edge_40_37_choose_one  1
    RHS1      rec_s5_edge_41_4_choose_one  1
    RHS1      rec_s5_edge_42_44_choose_one  1
    RHS1      rec_s5_edge_43_19_choose_one  1
    RHS1      rec_s5_edge_44_50_choose_one  1
    RHS1      rec_s5_edge_45_18_choose_one  1
    RHS1      rec_s5_edge_46_42_choose_one  1
    RHS1      rec_s5_edge_47_41_choose_one  1
    RHS1      rec_s5_edge_48_51_choose_one  1
    RHS1      rec_s5_edge_49_26_choose_one  1
    RHS1      rec_s5_edge_50_48_choose_one  1
    RHS1      rec_s5_edge_51_36_choose_one  1
    RHS1      rec_s5_edge_52_47_choose_one  1
    RHS1      rec_s5_edge_53_43_choose_one  1
    RHS1      rec_s62_edge_0_2_choose_one  1
    RHS1      rec_s62_edge_1_22_choose_one  1
    RHS1      rec_s62_edge_2_1_choose_one  1
    RHS1      rec_s62_edge_3_9_choose_one  1
    RHS1      rec_s62_edge_4_34_choose_one  1
    RHS1      rec_s62_edge_5_0_choose_one  1
    RHS1      rec_s62_edge_6_52_choose_one  1
    RHS1      rec_s62_edge_7_3_choose_one  1
    RHS1      rec_s62_edge_8_10_choose_one  1
    RHS1      rec_s62_edge_9_6_choose_one  1
    RHS1      rec_s62_edge_10_5_choose_one  1
    RHS1      rec_s62_edge_11_8_choose_one  1
    RHS1      rec_s62_edge_12_11_choose_one  1
    RHS1      rec_s62_edge_13_14_choose_one  1
    RHS1      rec_s62_edge_14_12_choose_one  1
    RHS1      rec_s62_edge_15_13_choose_one  1
    RHS1      rec_s62_edge_16_17_choose_one  1
    RHS1      rec_s62_edge_17_38_choose_one  1
    RHS1      rec_s62_edge_18_20_choose_one  1
    RHS1      rec_s62_edge_19_45_choose_one  1
    RHS1      rec_s62_edge_20_16_choose_one  1
    RHS1      rec_s62_edge_21_24_choose_one  1
    RHS1      rec_s62_edge_22_21_choose_one  1
    RHS1      rec_s62_edge_23_46_choose_one  1
    RHS1      rec_s62_edge_24_23_choose_one  1
    RHS1      rec_s62_edge_25_31_choose_one  1
    RHS1      rec_s62_edge_26_27_choose_one  1
    RHS1      rec_s62_edge_27_28_choose_one  1
    RHS1      rec_s62_edge_28_25_choose_one  1
    RHS1      rec_s62_edge_29_7_choose_one  1
    RHS1      rec_s62_edge_30_29_choose_one  1
    RHS1      rec_s62_edge_31_30_choose_one  1
    RHS1      rec_s62_edge_32_40_choose_one  1
    RHS1      rec_s62_edge_33_35_choose_one  1
    RHS1      rec_s62_edge_34_33_choose_one  1
    RHS1      rec_s62_edge_35_32_choose_one  1
    RHS1      rec_s62_edge_36_49_choose_one  1
    RHS1      rec_s62_edge_37_39_choose_one  1
    RHS1      rec_s62_edge_38_15_choose_one  1
    RHS1      rec_s62_edge_39_53_choose_one  1
    RHS1      rec_s62_edge_40_37_choose_one  1
    RHS1      rec_s62_edge_41_4_choose_one  1
    RHS1      rec_s62_edge_42_44_choose_one  1
    RHS1      rec_s62_edge_43_19_choose_one  1
    RHS1      rec_s62_edge_44_50_choose_one  1
    RHS1      rec_s62_edge_45_18_choose_one  1
    RHS1      rec_s62_edge_46_42_choose_one  1
    RHS1      rec_s62_edge_47_41_choose_one  1
    RHS1      rec_s62_edge_48_51_choose_one  1
    RHS1      rec_s62_edge_49_26_choose_one  1
    RHS1      rec_s62_edge_50_48_choose_one  1
    RHS1      rec_s62_edge_51_36_choose_one  1
    RHS1      rec_s62_edge_52_47_choose_one  1
    RHS1      rec_s62_edge_53_43_choose_one  1
    RHS1      rec_s78_edge_0_2_choose_one  1
    RHS1      rec_s78_edge_1_22_choose_one  1
    RHS1      rec_s78_edge_2_1_choose_one  1
    RHS1      rec_s78_edge_3_9_choose_one  1
    RHS1      rec_s78_edge_4_34_choose_one  1
    RHS1      rec_s78_edge_5_0_choose_one  1
    RHS1      rec_s78_edge_6_52_choose_one  1
    RHS1      rec_s78_edge_7_3_choose_one  1
    RHS1      rec_s78_edge_8_10_choose_one  1
    RHS1      rec_s78_edge_9_6_choose_one  1
    RHS1      rec_s78_edge_10_5_choose_one  1
    RHS1      rec_s78_edge_11_8_choose_one  1
    RHS1      rec_s78_edge_12_11_choose_one  1
    RHS1      rec_s78_edge_13_14_choose_one  1
    RHS1      rec_s78_edge_14_12_choose_one  1
    RHS1      rec_s78_edge_15_13_choose_one  1
    RHS1      rec_s78_edge_16_17_choose_one  1
    RHS1      rec_s78_edge_17_38_choose_one  1
    RHS1      rec_s78_edge_18_20_choose_one  1
    RHS1      rec_s78_edge_19_45_choose_one  1
    RHS1      rec_s78_edge_20_16_choose_one  1
    RHS1      rec_s78_edge_21_24_choose_one  1
    RHS1      rec_s78_edge_22_21_choose_one  1
    RHS1      rec_s78_edge_23_46_choose_one  1
    RHS1      rec_s78_edge_24_23_choose_one  1
    RHS1      rec_s78_edge_25_31_choose_one  1
    RHS1      rec_s78_edge_26_27_choose_one  1
    RHS1      rec_s78_edge_27_28_choose_one  1
    RHS1      rec_s78_edge_28_25_choose_one  1
    RHS1      rec_s78_edge_29_7_choose_one  1
    RHS1      rec_s78_edge_30_29_choose_one  1
    RHS1      rec_s78_edge_31_30_choose_one  1
    RHS1      rec_s78_edge_32_40_choose_one  1
    RHS1      rec_s78_edge_33_35_choose_one  1
    RHS1      rec_s78_edge_34_33_choose_one  1
    RHS1      rec_s78_edge_35_32_choose_one  1
    RHS1      rec_s78_edge_36_49_choose_one  1
    RHS1      rec_s78_edge_37_39_choose_one  1
    RHS1      rec_s78_edge_38_15_choose_one  1
    RHS1      rec_s78_edge_39_53_choose_one  1
    RHS1      rec_s78_edge_40_37_choose_one  1
    RHS1      rec_s78_edge_41_4_choose_one  1
    RHS1      rec_s78_edge_42_44_choose_one  1
    RHS1      rec_s78_edge_43_19_choose_one  1
    RHS1      rec_s78_edge_44_50_choose_one  1
    RHS1      rec_s78_edge_45_18_choose_one  1
    RHS1      rec_s78_edge_46_42_choose_one  1
    RHS1      rec_s78_edge_47_41_choose_one  1
    RHS1      rec_s78_edge_48_51_choose_one  1
    RHS1      rec_s78_edge_49_26_choose_one  1
    RHS1      rec_s78_edge_50_48_choose_one  1
    RHS1      rec_s78_edge_51_36_choose_one  1
    RHS1      rec_s78_edge_52_47_choose_one  1
    RHS1      rec_s78_edge_53_43_choose_one  1
    RHS1      rec_s96_edge_0_2_choose_one  1
    RHS1      rec_s96_edge_1_22_choose_one  1
    RHS1      rec_s96_edge_2_1_choose_one  1
    RHS1      rec_s96_edge_3_9_choose_one  1
    RHS1      rec_s96_edge_4_34_choose_one  1
    RHS1      rec_s96_edge_5_0_choose_one  1
    RHS1      rec_s96_edge_6_52_choose_one  1
    RHS1      rec_s96_edge_7_3_choose_one  1
    RHS1      rec_s96_edge_8_10_choose_one  1
    RHS1      rec_s96_edge_9_6_choose_one  1
    RHS1      rec_s96_edge_10_5_choose_one  1
    RHS1      rec_s96_edge_11_8_choose_one  1
    RHS1      rec_s96_edge_12_11_choose_one  1
    RHS1      rec_s96_edge_13_14_choose_one  1
    RHS1      rec_s96_edge_14_12_choose_one  1
    RHS1      rec_s96_edge_15_13_choose_one  1
    RHS1      rec_s96_edge_16_17_choose_one  1
    RHS1      rec_s96_edge_17_38_choose_one  1
    RHS1      rec_s96_edge_18_20_choose_one  1
    RHS1      rec_s96_edge_19_45_choose_one  1
    RHS1      rec_s96_edge_20_16_choose_one  1
    RHS1      rec_s96_edge_21_24_choose_one  1
    RHS1      rec_s96_edge_22_21_choose_one  1
    RHS1      rec_s96_edge_23_46_choose_one  1
    RHS1      rec_s96_edge_24_23_choose_one  1
    RHS1      rec_s96_edge_25_31_choose_one  1
    RHS1      rec_s96_edge_26_27_choose_one  1
    RHS1      rec_s96_edge_27_28_choose_one  1
    RHS1      rec_s96_edge_28_25_choose_one  1
    RHS1      rec_s96_edge_29_7_choose_one  1
    RHS1      rec_s96_edge_30_29_choose_one  1
    RHS1      rec_s96_edge_31_30_choose_one  1
    RHS1      rec_s96_edge_32_40_choose_one  1
    RHS1      rec_s96_edge_33_35_choose_one  1
    RHS1      rec_s96_edge_34_33_choose_one  1
    RHS1      rec_s96_edge_35_32_choose_one  1
    RHS1      rec_s96_edge_36_49_choose_one  1
    RHS1      rec_s96_edge_37_39_choose_one  1
    RHS1      rec_s96_edge_38_15_choose_one  1
    RHS1      rec_s96_edge_39_53_choose_one  1
    RHS1      rec_s96_edge_40_37_choose_one  1
    RHS1      rec_s96_edge_41_4_choose_one  1
    RHS1      rec_s96_edge_42_44_choose_one  1
    RHS1      rec_s96_edge_43_19_choose_one  1
    RHS1      rec_s96_edge_44_50_choose_one  1
    RHS1      rec_s96_edge_45_18_choose_one  1
    RHS1      rec_s96_edge_46_42_choose_one  1
    RHS1      rec_s96_edge_47_41_choose_one  1
    RHS1      rec_s96_edge_48_51_choose_one  1
    RHS1      rec_s96_edge_49_26_choose_one  1
    RHS1      rec_s96_edge_50_48_choose_one  1
    RHS1      rec_s96_edge_51_36_choose_one  1
    RHS1      rec_s96_edge_52_47_choose_one  1
    RHS1      rec_s96_edge_53_43_choose_one  1
    RHS1      rec_s64_edge_0_2_choose_one  1
    RHS1      rec_s64_edge_1_22_choose_one  1
    RHS1      rec_s64_edge_2_1_choose_one  1
    RHS1      rec_s64_edge_3_9_choose_one  1
    RHS1      rec_s64_edge_4_34_choose_one  1
    RHS1      rec_s64_edge_5_0_choose_one  1
    RHS1      rec_s64_edge_6_52_choose_one  1
    RHS1      rec_s64_edge_7_3_choose_one  1
    RHS1      rec_s64_edge_8_10_choose_one  1
    RHS1      rec_s64_edge_9_6_choose_one  1
    RHS1      rec_s64_edge_10_5_choose_one  1
    RHS1      rec_s64_edge_11_8_choose_one  1
    RHS1      rec_s64_edge_12_11_choose_one  1
    RHS1      rec_s64_edge_13_14_choose_one  1
    RHS1      rec_s64_edge_14_12_choose_one  1
    RHS1      rec_s64_edge_15_13_choose_one  1
    RHS1      rec_s64_edge_16_17_choose_one  1
    RHS1      rec_s64_edge_17_38_choose_one  1
    RHS1      rec_s64_edge_18_20_choose_one  1
    RHS1      rec_s64_edge_19_45_choose_one  1
    RHS1      rec_s64_edge_20_16_choose_one  1
    RHS1      rec_s64_edge_21_24_choose_one  1
    RHS1      rec_s64_edge_22_21_choose_one  1
    RHS1      rec_s64_edge_23_46_choose_one  1
    RHS1      rec_s64_edge_24_23_choose_one  1
    RHS1      rec_s64_edge_25_31_choose_one  1
    RHS1      rec_s64_edge_26_27_choose_one  1
    RHS1      rec_s64_edge_27_28_choose_one  1
    RHS1      rec_s64_edge_28_25_choose_one  1
    RHS1      rec_s64_edge_29_7_choose_one  1
    RHS1      rec_s64_edge_30_29_choose_one  1
    RHS1      rec_s64_edge_31_30_choose_one  1
    RHS1      rec_s64_edge_32_40_choose_one  1
    RHS1      rec_s64_edge_33_35_choose_one  1
    RHS1      rec_s64_edge_34_33_choose_one  1
    RHS1      rec_s64_edge_35_32_choose_one  1
    RHS1      rec_s64_edge_36_49_choose_one  1
    RHS1      rec_s64_edge_37_39_choose_one  1
    RHS1      rec_s64_edge_38_15_choose_one  1
    RHS1      rec_s64_edge_39_53_choose_one  1
    RHS1      rec_s64_edge_40_37_choose_one  1
    RHS1      rec_s64_edge_41_4_choose_one  1
    RHS1      rec_s64_edge_42_44_choose_one  1
    RHS1      rec_s64_edge_43_19_choose_one  1
    RHS1      rec_s64_edge_44_50_choose_one  1
    RHS1      rec_s64_edge_45_18_choose_one  1
    RHS1      rec_s64_edge_46_42_choose_one  1
    RHS1      rec_s64_edge_47_41_choose_one  1
    RHS1      rec_s64_edge_48_51_choose_one  1
    RHS1      rec_s64_edge_49_26_choose_one  1
    RHS1      rec_s64_edge_50_48_choose_one  1
    RHS1      rec_s64_edge_51_36_choose_one  1
    RHS1      rec_s64_edge_52_47_choose_one  1
    RHS1      rec_s64_edge_53_43_choose_one  1
    RHS1      rec_s20_edge_0_2_choose_one  1
    RHS1      rec_s20_edge_1_22_choose_one  1
    RHS1      rec_s20_edge_2_1_choose_one  1
    RHS1      rec_s20_edge_3_9_choose_one  1
    RHS1      rec_s20_edge_4_34_choose_one  1
    RHS1      rec_s20_edge_5_0_choose_one  1
    RHS1      rec_s20_edge_6_52_choose_one  1
    RHS1      rec_s20_edge_7_3_choose_one  1
    RHS1      rec_s20_edge_8_10_choose_one  1
    RHS1      rec_s20_edge_9_6_choose_one  1
    RHS1      rec_s20_edge_10_5_choose_one  1
    RHS1      rec_s20_edge_11_8_choose_one  1
    RHS1      rec_s20_edge_12_11_choose_one  1
    RHS1      rec_s20_edge_13_14_choose_one  1
    RHS1      rec_s20_edge_14_12_choose_one  1
    RHS1      rec_s20_edge_15_13_choose_one  1
    RHS1      rec_s20_edge_16_17_choose_one  1
    RHS1      rec_s20_edge_17_38_choose_one  1
    RHS1      rec_s20_edge_18_20_choose_one  1
    RHS1      rec_s20_edge_19_45_choose_one  1
    RHS1      rec_s20_edge_20_16_choose_one  1
    RHS1      rec_s20_edge_21_24_choose_one  1
    RHS1      rec_s20_edge_22_21_choose_one  1
    RHS1      rec_s20_edge_23_46_choose_one  1
    RHS1      rec_s20_edge_24_23_choose_one  1
    RHS1      rec_s20_edge_25_31_choose_one  1
    RHS1      rec_s20_edge_26_27_choose_one  1
    RHS1      rec_s20_edge_27_28_choose_one  1
    RHS1      rec_s20_edge_28_25_choose_one  1
    RHS1      rec_s20_edge_29_7_choose_one  1
    RHS1      rec_s20_edge_30_29_choose_one  1
    RHS1      rec_s20_edge_31_30_choose_one  1
    RHS1      rec_s20_edge_32_40_choose_one  1
    RHS1      rec_s20_edge_33_35_choose_one  1
    RHS1      rec_s20_edge_34_33_choose_one  1
    RHS1      rec_s20_edge_35_32_choose_one  1
    RHS1      rec_s20_edge_36_49_choose_one  1
    RHS1      rec_s20_edge_37_39_choose_one  1
    RHS1      rec_s20_edge_38_15_choose_one  1
    RHS1      rec_s20_edge_39_53_choose_one  1
    RHS1      rec_s20_edge_40_37_choose_one  1
    RHS1      rec_s20_edge_41_4_choose_one  1
    RHS1      rec_s20_edge_42_44_choose_one  1
    RHS1      rec_s20_edge_43_19_choose_one  1
    RHS1      rec_s20_edge_44_50_choose_one  1
    RHS1      rec_s20_edge_45_18_choose_one  1
    RHS1      rec_s20_edge_46_42_choose_one  1
    RHS1      rec_s20_edge_47_41_choose_one  1
    RHS1      rec_s20_edge_48_51_choose_one  1
    RHS1      rec_s20_edge_49_26_choose_one  1
    RHS1      rec_s20_edge_50_48_choose_one  1
    RHS1      rec_s20_edge_51_36_choose_one  1
    RHS1      rec_s20_edge_52_47_choose_one  1
    RHS1      rec_s20_edge_53_43_choose_one  1
    RHS1      rec_s51_edge_0_2_choose_one  1
    RHS1      rec_s51_edge_1_22_choose_one  1
    RHS1      rec_s51_edge_2_1_choose_one  1
    RHS1      rec_s51_edge_3_9_choose_one  1
    RHS1      rec_s51_edge_4_34_choose_one  1
    RHS1      rec_s51_edge_5_0_choose_one  1
    RHS1      rec_s51_edge_6_52_choose_one  1
    RHS1      rec_s51_edge_7_3_choose_one  1
    RHS1      rec_s51_edge_8_10_choose_one  1
    RHS1      rec_s51_edge_9_6_choose_one  1
    RHS1      rec_s51_edge_10_5_choose_one  1
    RHS1      rec_s51_edge_11_8_choose_one  1
    RHS1      rec_s51_edge_12_11_choose_one  1
    RHS1      rec_s51_edge_13_14_choose_one  1
    RHS1      rec_s51_edge_14_12_choose_one  1
    RHS1      rec_s51_edge_15_13_choose_one  1
    RHS1      rec_s51_edge_16_17_choose_one  1
    RHS1      rec_s51_edge_17_38_choose_one  1
    RHS1      rec_s51_edge_18_20_choose_one  1
    RHS1      rec_s51_edge_19_45_choose_one  1
    RHS1      rec_s51_edge_20_16_choose_one  1
    RHS1      rec_s51_edge_21_24_choose_one  1
    RHS1      rec_s51_edge_22_21_choose_one  1
    RHS1      rec_s51_edge_23_46_choose_one  1
    RHS1      rec_s51_edge_24_23_choose_one  1
    RHS1      rec_s51_edge_25_31_choose_one  1
    RHS1      rec_s51_edge_26_27_choose_one  1
    RHS1      rec_s51_edge_27_28_choose_one  1
    RHS1      rec_s51_edge_28_25_choose_one  1
    RHS1      rec_s51_edge_29_7_choose_one  1
    RHS1      rec_s51_edge_30_29_choose_one  1
    RHS1      rec_s51_edge_31_30_choose_one  1
    RHS1      rec_s51_edge_32_40_choose_one  1
    RHS1      rec_s51_edge_33_35_choose_one  1
    RHS1      rec_s51_edge_34_33_choose_one  1
    RHS1      rec_s51_edge_35_32_choose_one  1
    RHS1      rec_s51_edge_36_49_choose_one  1
    RHS1      rec_s51_edge_37_39_choose_one  1
    RHS1      rec_s51_edge_38_15_choose_one  1
    RHS1      rec_s51_edge_39_53_choose_one  1
    RHS1      rec_s51_edge_40_37_choose_one  1
    RHS1      rec_s51_edge_41_4_choose_one  1
    RHS1      rec_s51_edge_42_44_choose_one  1
    RHS1      rec_s51_edge_43_19_choose_one  1
    RHS1      rec_s51_edge_44_50_choose_one  1
    RHS1      rec_s51_edge_45_18_choose_one  1
    RHS1      rec_s51_edge_46_42_choose_one  1
    RHS1      rec_s51_edge_47_41_choose_one  1
    RHS1      rec_s51_edge_48_51_choose_one  1
    RHS1      rec_s51_edge_49_26_choose_one  1
    RHS1      rec_s51_edge_50_48_choose_one  1
    RHS1      rec_s51_edge_51_36_choose_one  1
    RHS1      rec_s51_edge_52_47_choose_one  1
    RHS1      rec_s51_edge_53_43_choose_one  1
    RHS1      rec_s61_edge_0_2_choose_one  1
    RHS1      rec_s61_edge_1_22_choose_one  1
    RHS1      rec_s61_edge_2_1_choose_one  1
    RHS1      rec_s61_edge_3_9_choose_one  1
    RHS1      rec_s61_edge_4_34_choose_one  1
    RHS1      rec_s61_edge_5_0_choose_one  1
    RHS1      rec_s61_edge_6_52_choose_one  1
    RHS1      rec_s61_edge_7_3_choose_one  1
    RHS1      rec_s61_edge_8_10_choose_one  1
    RHS1      rec_s61_edge_9_6_choose_one  1
    RHS1      rec_s61_edge_10_5_choose_one  1
    RHS1      rec_s61_edge_11_8_choose_one  1
    RHS1      rec_s61_edge_12_11_choose_one  1
    RHS1      rec_s61_edge_13_14_choose_one  1
    RHS1      rec_s61_edge_14_12_choose_one  1
    RHS1      rec_s61_edge_15_13_choose_one  1
    RHS1      rec_s61_edge_16_17_choose_one  1
    RHS1      rec_s61_edge_17_38_choose_one  1
    RHS1      rec_s61_edge_18_20_choose_one  1
    RHS1      rec_s61_edge_19_45_choose_one  1
    RHS1      rec_s61_edge_20_16_choose_one  1
    RHS1      rec_s61_edge_21_24_choose_one  1
    RHS1      rec_s61_edge_22_21_choose_one  1
    RHS1      rec_s61_edge_23_46_choose_one  1
    RHS1      rec_s61_edge_24_23_choose_one  1
    RHS1      rec_s61_edge_25_31_choose_one  1
    RHS1      rec_s61_edge_26_27_choose_one  1
    RHS1      rec_s61_edge_27_28_choose_one  1
    RHS1      rec_s61_edge_28_25_choose_one  1
    RHS1      rec_s61_edge_29_7_choose_one  1
    RHS1      rec_s61_edge_30_29_choose_one  1
    RHS1      rec_s61_edge_31_30_choose_one  1
    RHS1      rec_s61_edge_32_40_choose_one  1
    RHS1      rec_s61_edge_33_35_choose_one  1
    RHS1      rec_s61_edge_34_33_choose_one  1
    RHS1      rec_s61_edge_35_32_choose_one  1
    RHS1      rec_s61_edge_36_49_choose_one  1
    RHS1      rec_s61_edge_37_39_choose_one  1
    RHS1      rec_s61_edge_38_15_choose_one  1
    RHS1      rec_s61_edge_39_53_choose_one  1
    RHS1      rec_s61_edge_40_37_choose_one  1
    RHS1      rec_s61_edge_41_4_choose_one  1
    RHS1      rec_s61_edge_42_44_choose_one  1
    RHS1      rec_s61_edge_43_19_choose_one  1
    RHS1      rec_s61_edge_44_50_choose_one  1
    RHS1      rec_s61_edge_45_18_choose_one  1
    RHS1      rec_s61_edge_46_42_choose_one  1
    RHS1      rec_s61_edge_47_41_choose_one  1
    RHS1      rec_s61_edge_48_51_choose_one  1
    RHS1      rec_s61_edge_49_26_choose_one  1
    RHS1      rec_s61_edge_50_48_choose_one  1
    RHS1      rec_s61_edge_51_36_choose_one  1
    RHS1      rec_s61_edge_52_47_choose_one  1
    RHS1      rec_s61_edge_53_43_choose_one  1
    RHS1      rec_s81_edge_0_2_choose_one  1
    RHS1      rec_s81_edge_1_22_choose_one  1
    RHS1      rec_s81_edge_2_1_choose_one  1
    RHS1      rec_s81_edge_3_9_choose_one  1
    RHS1      rec_s81_edge_4_34_choose_one  1
    RHS1      rec_s81_edge_5_0_choose_one  1
    RHS1      rec_s81_edge_6_52_choose_one  1
    RHS1      rec_s81_edge_7_3_choose_one  1
    RHS1      rec_s81_edge_8_10_choose_one  1
    RHS1      rec_s81_edge_9_6_choose_one  1
    RHS1      rec_s81_edge_10_5_choose_one  1
    RHS1      rec_s81_edge_11_8_choose_one  1
    RHS1      rec_s81_edge_12_11_choose_one  1
    RHS1      rec_s81_edge_13_14_choose_one  1
    RHS1      rec_s81_edge_14_12_choose_one  1
    RHS1      rec_s81_edge_15_13_choose_one  1
    RHS1      rec_s81_edge_16_17_choose_one  1
    RHS1      rec_s81_edge_17_38_choose_one  1
    RHS1      rec_s81_edge_18_20_choose_one  1
    RHS1      rec_s81_edge_19_45_choose_one  1
    RHS1      rec_s81_edge_20_16_choose_one  1
    RHS1      rec_s81_edge_21_24_choose_one  1
    RHS1      rec_s81_edge_22_21_choose_one  1
    RHS1      rec_s81_edge_23_46_choose_one  1
    RHS1      rec_s81_edge_24_23_choose_one  1
    RHS1      rec_s81_edge_25_31_choose_one  1
    RHS1      rec_s81_edge_26_27_choose_one  1
    RHS1      rec_s81_edge_27_28_choose_one  1
    RHS1      rec_s81_edge_28_25_choose_one  1
    RHS1      rec_s81_edge_29_7_choose_one  1
    RHS1      rec_s81_edge_30_29_choose_one  1
    RHS1      rec_s81_edge_31_30_choose_one  1
    RHS1      rec_s81_edge_32_40_choose_one  1
    RHS1      rec_s81_edge_33_35_choose_one  1
    RHS1      rec_s81_edge_34_33_choose_one  1
    RHS1      rec_s81_edge_35_32_choose_one  1
    RHS1      rec_s81_edge_36_49_choose_one  1
    RHS1      rec_s81_edge_37_39_choose_one  1
    RHS1      rec_s81_edge_38_15_choose_one  1
    RHS1      rec_s81_edge_39_53_choose_one  1
    RHS1      rec_s81_edge_40_37_choose_one  1
    RHS1      rec_s81_edge_41_4_choose_one  1
    RHS1      rec_s81_edge_42_44_choose_one  1
    RHS1      rec_s81_edge_43_19_choose_one  1
    RHS1      rec_s81_edge_44_50_choose_one  1
    RHS1      rec_s81_edge_45_18_choose_one  1
    RHS1      rec_s81_edge_46_42_choose_one  1
    RHS1      rec_s81_edge_47_41_choose_one  1
    RHS1      rec_s81_edge_48_51_choose_one  1
    RHS1      rec_s81_edge_49_26_choose_one  1
    RHS1      rec_s81_edge_50_48_choose_one  1
    RHS1      rec_s81_edge_51_36_choose_one  1
    RHS1      rec_s81_edge_52_47_choose_one  1
    RHS1      rec_s81_edge_53_43_choose_one  1
    RHS1      rec_s9_edge_0_2_choose_one  1
    RHS1      rec_s9_edge_1_22_choose_one  1
    RHS1      rec_s9_edge_2_1_choose_one  1
    RHS1      rec_s9_edge_3_9_choose_one  1
    RHS1      rec_s9_edge_4_34_choose_one  1
    RHS1      rec_s9_edge_5_0_choose_one  1
    RHS1      rec_s9_edge_6_52_choose_one  1
    RHS1      rec_s9_edge_7_3_choose_one  1
    RHS1      rec_s9_edge_8_10_choose_one  1
    RHS1      rec_s9_edge_9_6_choose_one  1
    RHS1      rec_s9_edge_10_5_choose_one  1
    RHS1      rec_s9_edge_11_8_choose_one  1
    RHS1      rec_s9_edge_12_11_choose_one  1
    RHS1      rec_s9_edge_13_14_choose_one  1
    RHS1      rec_s9_edge_14_12_choose_one  1
    RHS1      rec_s9_edge_15_13_choose_one  1
    RHS1      rec_s9_edge_16_17_choose_one  1
    RHS1      rec_s9_edge_17_38_choose_one  1
    RHS1      rec_s9_edge_18_20_choose_one  1
    RHS1      rec_s9_edge_19_45_choose_one  1
    RHS1      rec_s9_edge_20_16_choose_one  1
    RHS1      rec_s9_edge_21_24_choose_one  1
    RHS1      rec_s9_edge_22_21_choose_one  1
    RHS1      rec_s9_edge_23_46_choose_one  1
    RHS1      rec_s9_edge_24_23_choose_one  1
    RHS1      rec_s9_edge_25_31_choose_one  1
    RHS1      rec_s9_edge_26_27_choose_one  1
    RHS1      rec_s9_edge_27_28_choose_one  1
    RHS1      rec_s9_edge_28_25_choose_one  1
    RHS1      rec_s9_edge_29_7_choose_one  1
    RHS1      rec_s9_edge_30_29_choose_one  1
    RHS1      rec_s9_edge_31_30_choose_one  1
    RHS1      rec_s9_edge_32_40_choose_one  1
    RHS1      rec_s9_edge_33_35_choose_one  1
    RHS1      rec_s9_edge_34_33_choose_one  1
    RHS1      rec_s9_edge_35_32_choose_one  1
    RHS1      rec_s9_edge_36_49_choose_one  1
    RHS1      rec_s9_edge_37_39_choose_one  1
    RHS1      rec_s9_edge_38_15_choose_one  1
    RHS1      rec_s9_edge_39_53_choose_one  1
    RHS1      rec_s9_edge_40_37_choose_one  1
    RHS1      rec_s9_edge_41_4_choose_one  1
    RHS1      rec_s9_edge_42_44_choose_one  1
    RHS1      rec_s9_edge_43_19_choose_one  1
    RHS1      rec_s9_edge_44_50_choose_one  1
    RHS1      rec_s9_edge_45_18_choose_one  1
    RHS1      rec_s9_edge_46_42_choose_one  1
    RHS1      rec_s9_edge_47_41_choose_one  1
    RHS1      rec_s9_edge_48_51_choose_one  1
    RHS1      rec_s9_edge_49_26_choose_one  1
    RHS1      rec_s9_edge_50_48_choose_one  1
    RHS1      rec_s9_edge_51_36_choose_one  1
    RHS1      rec_s9_edge_52_47_choose_one  1
    RHS1      rec_s9_edge_53_43_choose_one  1
    RHS1      rec_s63_edge_0_2_choose_one  1
    RHS1      rec_s63_edge_1_22_choose_one  1
    RHS1      rec_s63_edge_2_1_choose_one  1
    RHS1      rec_s63_edge_3_9_choose_one  1
    RHS1      rec_s63_edge_4_34_choose_one  1
    RHS1      rec_s63_edge_5_0_choose_one  1
    RHS1      rec_s63_edge_6_52_choose_one  1
    RHS1      rec_s63_edge_7_3_choose_one  1
    RHS1      rec_s63_edge_8_10_choose_one  1
    RHS1      rec_s63_edge_9_6_choose_one  1
    RHS1      rec_s63_edge_10_5_choose_one  1
    RHS1      rec_s63_edge_11_8_choose_one  1
    RHS1      rec_s63_edge_12_11_choose_one  1
    RHS1      rec_s63_edge_13_14_choose_one  1
    RHS1      rec_s63_edge_14_12_choose_one  1
    RHS1      rec_s63_edge_15_13_choose_one  1
    RHS1      rec_s63_edge_16_17_choose_one  1
    RHS1      rec_s63_edge_17_38_choose_one  1
    RHS1      rec_s63_edge_18_20_choose_one  1
    RHS1      rec_s63_edge_19_45_choose_one  1
    RHS1      rec_s63_edge_20_16_choose_one  1
    RHS1      rec_s63_edge_21_24_choose_one  1
    RHS1      rec_s63_edge_22_21_choose_one  1
    RHS1      rec_s63_edge_23_46_choose_one  1
    RHS1      rec_s63_edge_24_23_choose_one  1
    RHS1      rec_s63_edge_25_31_choose_one  1
    RHS1      rec_s63_edge_26_27_choose_one  1
    RHS1      rec_s63_edge_27_28_choose_one  1
    RHS1      rec_s63_edge_28_25_choose_one  1
    RHS1      rec_s63_edge_29_7_choose_one  1
    RHS1      rec_s63_edge_30_29_choose_one  1
    RHS1      rec_s63_edge_31_30_choose_one  1
    RHS1      rec_s63_edge_32_40_choose_one  1
    RHS1      rec_s63_edge_33_35_choose_one  1
    RHS1      rec_s63_edge_34_33_choose_one  1
    RHS1      rec_s63_edge_35_32_choose_one  1
    RHS1      rec_s63_edge_36_49_choose_one  1
    RHS1      rec_s63_edge_37_39_choose_one  1
    RHS1      rec_s63_edge_38_15_choose_one  1
    RHS1      rec_s63_edge_39_53_choose_one  1
    RHS1      rec_s63_edge_40_37_choose_one  1
    RHS1      rec_s63_edge_41_4_choose_one  1
    RHS1      rec_s63_edge_42_44_choose_one  1
    RHS1      rec_s63_edge_43_19_choose_one  1
    RHS1      rec_s63_edge_44_50_choose_one  1
    RHS1      rec_s63_edge_45_18_choose_one  1
    RHS1      rec_s63_edge_46_42_choose_one  1
    RHS1      rec_s63_edge_47_41_choose_one  1
    RHS1      rec_s63_edge_48_51_choose_one  1
    RHS1      rec_s63_edge_49_26_choose_one  1
    RHS1      rec_s63_edge_50_48_choose_one  1
    RHS1      rec_s63_edge_51_36_choose_one  1
    RHS1      rec_s63_edge_52_47_choose_one  1
    RHS1      rec_s63_edge_53_43_choose_one  1
    RHS1      rec_s43_edge_0_2_choose_one  1
    RHS1      rec_s43_edge_1_22_choose_one  1
    RHS1      rec_s43_edge_2_1_choose_one  1
    RHS1      rec_s43_edge_3_9_choose_one  1
    RHS1      rec_s43_edge_4_34_choose_one  1
    RHS1      rec_s43_edge_5_0_choose_one  1
    RHS1      rec_s43_edge_6_52_choose_one  1
    RHS1      rec_s43_edge_7_3_choose_one  1
    RHS1      rec_s43_edge_8_10_choose_one  1
    RHS1      rec_s43_edge_9_6_choose_one  1
    RHS1      rec_s43_edge_10_5_choose_one  1
    RHS1      rec_s43_edge_11_8_choose_one  1
    RHS1      rec_s43_edge_12_11_choose_one  1
    RHS1      rec_s43_edge_13_14_choose_one  1
    RHS1      rec_s43_edge_14_12_choose_one  1
    RHS1      rec_s43_edge_15_13_choose_one  1
    RHS1      rec_s43_edge_16_17_choose_one  1
    RHS1      rec_s43_edge_17_38_choose_one  1
    RHS1      rec_s43_edge_18_20_choose_one  1
    RHS1      rec_s43_edge_19_45_choose_one  1
    RHS1      rec_s43_edge_20_16_choose_one  1
    RHS1      rec_s43_edge_21_24_choose_one  1
    RHS1      rec_s43_edge_22_21_choose_one  1
    RHS1      rec_s43_edge_23_46_choose_one  1
    RHS1      rec_s43_edge_24_23_choose_one  1
    RHS1      rec_s43_edge_25_31_choose_one  1
    RHS1      rec_s43_edge_26_27_choose_one  1
    RHS1      rec_s43_edge_27_28_choose_one  1
    RHS1      rec_s43_edge_28_25_choose_one  1
    RHS1      rec_s43_edge_29_7_choose_one  1
    RHS1      rec_s43_edge_30_29_choose_one  1
    RHS1      rec_s43_edge_31_30_choose_one  1
    RHS1      rec_s43_edge_32_40_choose_one  1
    RHS1      rec_s43_edge_33_35_choose_one  1
    RHS1      rec_s43_edge_34_33_choose_one  1
    RHS1      rec_s43_edge_35_32_choose_one  1
    RHS1      rec_s43_edge_36_49_choose_one  1
    RHS1      rec_s43_edge_37_39_choose_one  1
    RHS1      rec_s43_edge_38_15_choose_one  1
    RHS1      rec_s43_edge_39_53_choose_one  1
    RHS1      rec_s43_edge_40_37_choose_one  1
    RHS1      rec_s43_edge_41_4_choose_one  1
    RHS1      rec_s43_edge_42_44_choose_one  1
    RHS1      rec_s43_edge_43_19_choose_one  1
    RHS1      rec_s43_edge_44_50_choose_one  1
    RHS1      rec_s43_edge_45_18_choose_one  1
    RHS1      rec_s43_edge_46_42_choose_one  1
    RHS1      rec_s43_edge_47_41_choose_one  1
    RHS1      rec_s43_edge_48_51_choose_one  1
    RHS1      rec_s43_edge_49_26_choose_one  1
    RHS1      rec_s43_edge_50_48_choose_one  1
    RHS1      rec_s43_edge_51_36_choose_one  1
    RHS1      rec_s43_edge_52_47_choose_one  1
    RHS1      rec_s43_edge_53_43_choose_one  1
    RHS1      rec_s72_edge_0_2_choose_one  1
    RHS1      rec_s72_edge_1_22_choose_one  1
    RHS1      rec_s72_edge_2_1_choose_one  1
    RHS1      rec_s72_edge_3_9_choose_one  1
    RHS1      rec_s72_edge_4_34_choose_one  1
    RHS1      rec_s72_edge_5_0_choose_one  1
    RHS1      rec_s72_edge_6_52_choose_one  1
    RHS1      rec_s72_edge_7_3_choose_one  1
    RHS1      rec_s72_edge_8_10_choose_one  1
    RHS1      rec_s72_edge_9_6_choose_one  1
    RHS1      rec_s72_edge_10_5_choose_one  1
    RHS1      rec_s72_edge_11_8_choose_one  1
    RHS1      rec_s72_edge_12_11_choose_one  1
    RHS1      rec_s72_edge_13_14_choose_one  1
    RHS1      rec_s72_edge_14_12_choose_one  1
    RHS1      rec_s72_edge_15_13_choose_one  1
    RHS1      rec_s72_edge_16_17_choose_one  1
    RHS1      rec_s72_edge_17_38_choose_one  1
    RHS1      rec_s72_edge_18_20_choose_one  1
    RHS1      rec_s72_edge_19_45_choose_one  1
    RHS1      rec_s72_edge_20_16_choose_one  1
    RHS1      rec_s72_edge_21_24_choose_one  1
    RHS1      rec_s72_edge_22_21_choose_one  1
    RHS1      rec_s72_edge_23_46_choose_one  1
    RHS1      rec_s72_edge_24_23_choose_one  1
    RHS1      rec_s72_edge_25_31_choose_one  1
    RHS1      rec_s72_edge_26_27_choose_one  1
    RHS1      rec_s72_edge_27_28_choose_one  1
    RHS1      rec_s72_edge_28_25_choose_one  1
    RHS1      rec_s72_edge_29_7_choose_one  1
    RHS1      rec_s72_edge_30_29_choose_one  1
    RHS1      rec_s72_edge_31_30_choose_one  1
    RHS1      rec_s72_edge_32_40_choose_one  1
    RHS1      rec_s72_edge_33_35_choose_one  1
    RHS1      rec_s72_edge_34_33_choose_one  1
    RHS1      rec_s72_edge_35_32_choose_one  1
    RHS1      rec_s72_edge_36_49_choose_one  1
    RHS1      rec_s72_edge_37_39_choose_one  1
    RHS1      rec_s72_edge_38_15_choose_one  1
    RHS1      rec_s72_edge_39_53_choose_one  1
    RHS1      rec_s72_edge_40_37_choose_one  1
    RHS1      rec_s72_edge_41_4_choose_one  1
    RHS1      rec_s72_edge_42_44_choose_one  1
    RHS1      rec_s72_edge_43_19_choose_one  1
    RHS1      rec_s72_edge_44_50_choose_one  1
    RHS1      rec_s72_edge_45_18_choose_one  1
    RHS1      rec_s72_edge_46_42_choose_one  1
    RHS1      rec_s72_edge_47_41_choose_one  1
    RHS1      rec_s72_edge_48_51_choose_one  1
    RHS1      rec_s72_edge_49_26_choose_one  1
    RHS1      rec_s72_edge_50_48_choose_one  1
    RHS1      rec_s72_edge_51_36_choose_one  1
    RHS1      rec_s72_edge_52_47_choose_one  1
    RHS1      rec_s72_edge_53_43_choose_one  1
    RHS1      budget_K  -7983.05
BOUNDS
 BV BND1      y_s67_i0_j2_k0
 BV BND1      y_s67_i0_j2_k1
 BV BND1      y_s67_i0_j2_k2
 BV BND1      y_s67_i1_j22_k0
 BV BND1      y_s67_i1_j22_k1
 BV BND1      y_s67_i1_j22_k2
 BV BND1      y_s67_i2_j1_k0
 BV BND1      y_s67_i2_j1_k1
 BV BND1      y_s67_i2_j1_k2
 BV BND1      y_s67_i3_j9_k0
 BV BND1      y_s67_i3_j9_k1
 BV BND1      y_s67_i3_j9_k2
 BV BND1      y_s67_i4_j34_k0
 BV BND1      y_s67_i4_j34_k1
 BV BND1      y_s67_i4_j34_k2
 BV BND1      y_s67_i5_j0_k0
 BV BND1      y_s67_i5_j0_k1
 BV BND1      y_s67_i5_j0_k2
 BV BND1      y_s67_i6_j52_k0
 BV BND1      y_s67_i6_j52_k1
 BV BND1      y_s67_i6_j52_k2
 BV BND1      y_s67_i7_j3_k0
 BV BND1      y_s67_i7_j3_k1
 BV BND1      y_s67_i7_j3_k2
 BV BND1      y_s67_i8_j10_k0
 BV BND1      y_s67_i8_j10_k1
 BV BND1      y_s67_i8_j10_k2
 BV BND1      y_s67_i9_j6_k0
 BV BND1      y_s67_i9_j6_k1
 BV BND1      y_s67_i9_j6_k2
 BV BND1      y_s67_i10_j5_k0
 BV BND1      y_s67_i10_j5_k1
 BV BND1      y_s67_i10_j5_k2
 BV BND1      y_s67_i11_j8_k0
 BV BND1      y_s67_i11_j8_k1
 BV BND1      y_s67_i11_j8_k2
 BV BND1      y_s67_i12_j11_k0
 BV BND1      y_s67_i12_j11_k1
 BV BND1      y_s67_i12_j11_k2
 BV BND1      y_s67_i13_j14_k0
 BV BND1      y_s67_i13_j14_k1
 BV BND1      y_s67_i13_j14_k2
 BV BND1      y_s67_i14_j12_k0
 BV BND1      y_s67_i14_j12_k1
 BV BND1      y_s67_i14_j12_k2
 BV BND1      y_s67_i15_j13_k0
 BV BND1      y_s67_i15_j13_k1
 BV BND1      y_s67_i15_j13_k2
 BV BND1      y_s67_i16_j17_k0
 BV BND1      y_s67_i16_j17_k1
 BV BND1      y_s67_i16_j17_k2
 BV BND1      y_s67_i17_j38_k0
 BV BND1      y_s67_i17_j38_k1
 BV BND1      y_s67_i17_j38_k2
 BV BND1      y_s67_i18_j20_k0
 BV BND1      y_s67_i18_j20_k1
 BV BND1      y_s67_i18_j20_k2
 BV BND1      y_s67_i19_j45_k0
 BV BND1      y_s67_i19_j45_k1
 BV BND1      y_s67_i19_j45_k2
 BV BND1      y_s67_i20_j16_k0
 BV BND1      y_s67_i20_j16_k1
 BV BND1      y_s67_i20_j16_k2
 BV BND1      y_s67_i21_j24_k0
 BV BND1      y_s67_i21_j24_k1
 BV BND1      y_s67_i21_j24_k2
 BV BND1      y_s67_i22_j21_k0
 BV BND1      y_s67_i22_j21_k1
 BV BND1      y_s67_i22_j21_k2
 BV BND1      y_s67_i23_j46_k0
 BV BND1      y_s67_i23_j46_k1
 BV BND1      y_s67_i23_j46_k2
 BV BND1      y_s67_i24_j23_k0
 BV BND1      y_s67_i24_j23_k1
 BV BND1      y_s67_i24_j23_k2
 BV BND1      y_s67_i25_j31_k0
 BV BND1      y_s67_i25_j31_k1
 BV BND1      y_s67_i25_j31_k2
 BV BND1      y_s67_i26_j27_k0
 BV BND1      y_s67_i26_j27_k1
 BV BND1      y_s67_i26_j27_k2
 BV BND1      y_s67_i27_j28_k0
 BV BND1      y_s67_i27_j28_k1
 BV BND1      y_s67_i27_j28_k2
 BV BND1      y_s67_i28_j25_k0
 BV BND1      y_s67_i28_j25_k1
 BV BND1      y_s67_i28_j25_k2
 BV BND1      y_s67_i29_j7_k0
 BV BND1      y_s67_i29_j7_k1
 BV BND1      y_s67_i29_j7_k2
 BV BND1      y_s67_i30_j29_k0
 BV BND1      y_s67_i30_j29_k1
 BV BND1      y_s67_i30_j29_k2
 BV BND1      y_s67_i31_j30_k0
 BV BND1      y_s67_i31_j30_k1
 BV BND1      y_s67_i31_j30_k2
 BV BND1      y_s67_i32_j40_k0
 BV BND1      y_s67_i32_j40_k1
 BV BND1      y_s67_i32_j40_k2
 BV BND1      y_s67_i33_j35_k0
 BV BND1      y_s67_i33_j35_k1
 BV BND1      y_s67_i33_j35_k2
 BV BND1      y_s67_i34_j33_k0
 BV BND1      y_s67_i34_j33_k1
 BV BND1      y_s67_i34_j33_k2
 BV BND1      y_s67_i35_j32_k0
 BV BND1      y_s67_i35_j32_k1
 BV BND1      y_s67_i35_j32_k2
 BV BND1      y_s67_i36_j49_k0
 BV BND1      y_s67_i36_j49_k1
 BV BND1      y_s67_i36_j49_k2
 BV BND1      y_s67_i37_j39_k0
 BV BND1      y_s67_i37_j39_k1
 BV BND1      y_s67_i37_j39_k2
 BV BND1      y_s67_i38_j15_k0
 BV BND1      y_s67_i38_j15_k1
 BV BND1      y_s67_i38_j15_k2
 BV BND1      y_s67_i39_j53_k0
 BV BND1      y_s67_i39_j53_k1
 BV BND1      y_s67_i39_j53_k2
 BV BND1      y_s67_i40_j37_k0
 BV BND1      y_s67_i40_j37_k1
 BV BND1      y_s67_i40_j37_k2
 BV BND1      y_s67_i41_j4_k0
 BV BND1      y_s67_i41_j4_k1
 BV BND1      y_s67_i41_j4_k2
 BV BND1      y_s67_i42_j44_k0
 BV BND1      y_s67_i42_j44_k1
 BV BND1      y_s67_i42_j44_k2
 BV BND1      y_s67_i43_j19_k0
 BV BND1      y_s67_i43_j19_k1
 BV BND1      y_s67_i43_j19_k2
 BV BND1      y_s67_i44_j50_k0
 BV BND1      y_s67_i44_j50_k1
 BV BND1      y_s67_i44_j50_k2
 BV BND1      y_s67_i45_j18_k0
 BV BND1      y_s67_i45_j18_k1
 BV BND1      y_s67_i45_j18_k2
 BV BND1      y_s67_i46_j42_k0
 BV BND1      y_s67_i46_j42_k1
 BV BND1      y_s67_i46_j42_k2
 BV BND1      y_s67_i47_j41_k0
 BV BND1      y_s67_i47_j41_k1
 BV BND1      y_s67_i47_j41_k2
 BV BND1      y_s67_i48_j51_k0
 BV BND1      y_s67_i48_j51_k1
 BV BND1      y_s67_i48_j51_k2
 BV BND1      y_s67_i49_j26_k0
 BV BND1      y_s67_i49_j26_k1
 BV BND1      y_s67_i49_j26_k2
 BV BND1      y_s67_i50_j48_k0
 BV BND1      y_s67_i50_j48_k1
 BV BND1      y_s67_i50_j48_k2
 BV BND1      y_s67_i51_j36_k0
 BV BND1      y_s67_i51_j36_k1
 BV BND1      y_s67_i51_j36_k2
 BV BND1      y_s67_i52_j47_k0
 BV BND1      y_s67_i52_j47_k1
 BV BND1      y_s67_i52_j47_k2
 BV BND1      y_s67_i53_j43_k0
 BV BND1      y_s67_i53_j43_k1
 BV BND1      y_s67_i53_j43_k2
 BV BND1      y_s80_i0_j2_k0
 BV BND1      y_s80_i0_j2_k1
 BV BND1      y_s80_i0_j2_k2
 BV BND1      y_s80_i1_j22_k0
 BV BND1      y_s80_i1_j22_k1
 BV BND1      y_s80_i1_j22_k2
 BV BND1      y_s80_i2_j1_k0
 BV BND1      y_s80_i2_j1_k1
 BV BND1      y_s80_i2_j1_k2
 BV BND1      y_s80_i3_j9_k0
 BV BND1      y_s80_i3_j9_k1
 BV BND1      y_s80_i3_j9_k2
 BV BND1      y_s80_i4_j34_k0
 BV BND1      y_s80_i4_j34_k1
 BV BND1      y_s80_i4_j34_k2
 BV BND1      y_s80_i5_j0_k0
 BV BND1      y_s80_i5_j0_k1
 BV BND1      y_s80_i5_j0_k2
 BV BND1      y_s80_i6_j52_k0
 BV BND1      y_s80_i6_j52_k1
 BV BND1      y_s80_i6_j52_k2
 BV BND1      y_s80_i7_j3_k0
 BV BND1      y_s80_i7_j3_k1
 BV BND1      y_s80_i7_j3_k2
 BV BND1      y_s80_i8_j10_k0
 BV BND1      y_s80_i8_j10_k1
 BV BND1      y_s80_i8_j10_k2
 BV BND1      y_s80_i9_j6_k0
 BV BND1      y_s80_i9_j6_k1
 BV BND1      y_s80_i9_j6_k2
 BV BND1      y_s80_i10_j5_k0
 BV BND1      y_s80_i10_j5_k1
 BV BND1      y_s80_i10_j5_k2
 BV BND1      y_s80_i11_j8_k0
 BV BND1      y_s80_i11_j8_k1
 BV BND1      y_s80_i11_j8_k2
 BV BND1      y_s80_i12_j11_k0
 BV BND1      y_s80_i12_j11_k1
 BV BND1      y_s80_i12_j11_k2
 BV BND1      y_s80_i13_j14_k0
 BV BND1      y_s80_i13_j14_k1
 BV BND1      y_s80_i13_j14_k2
 BV BND1      y_s80_i14_j12_k0
 BV BND1      y_s80_i14_j12_k1
 BV BND1      y_s80_i14_j12_k2
 BV BND1      y_s80_i15_j13_k0
 BV BND1      y_s80_i15_j13_k1
 BV BND1      y_s80_i15_j13_k2
 BV BND1      y_s80_i16_j17_k0
 BV BND1      y_s80_i16_j17_k1
 BV BND1      y_s80_i16_j17_k2
 BV BND1      y_s80_i17_j38_k0
 BV BND1      y_s80_i17_j38_k1
 BV BND1      y_s80_i17_j38_k2
 BV BND1      y_s80_i18_j20_k0
 BV BND1      y_s80_i18_j20_k1
 BV BND1      y_s80_i18_j20_k2
 BV BND1      y_s80_i19_j45_k0
 BV BND1      y_s80_i19_j45_k1
 BV BND1      y_s80_i19_j45_k2
 BV BND1      y_s80_i20_j16_k0
 BV BND1      y_s80_i20_j16_k1
 BV BND1      y_s80_i20_j16_k2
 BV BND1      y_s80_i21_j24_k0
 BV BND1      y_s80_i21_j24_k1
 BV BND1      y_s80_i21_j24_k2
 BV BND1      y_s80_i22_j21_k0
 BV BND1      y_s80_i22_j21_k1
 BV BND1      y_s80_i22_j21_k2
 BV BND1      y_s80_i23_j46_k0
 BV BND1      y_s80_i23_j46_k1
 BV BND1      y_s80_i23_j46_k2
 BV BND1      y_s80_i24_j23_k0
 BV BND1      y_s80_i24_j23_k1
 BV BND1      y_s80_i24_j23_k2
 BV BND1      y_s80_i25_j31_k0
 BV BND1      y_s80_i25_j31_k1
 BV BND1      y_s80_i25_j31_k2
 BV BND1      y_s80_i26_j27_k0
 BV BND1      y_s80_i26_j27_k1
 BV BND1      y_s80_i26_j27_k2
 BV BND1      y_s80_i27_j28_k0
 BV BND1      y_s80_i27_j28_k1
 BV BND1      y_s80_i27_j28_k2
 BV BND1      y_s80_i28_j25_k0
 BV BND1      y_s80_i28_j25_k1
 BV BND1      y_s80_i28_j25_k2
 BV BND1      y_s80_i29_j7_k0
 BV BND1      y_s80_i29_j7_k1
 BV BND1      y_s80_i29_j7_k2
 BV BND1      y_s80_i30_j29_k0
 BV BND1      y_s80_i30_j29_k1
 BV BND1      y_s80_i30_j29_k2
 BV BND1      y_s80_i31_j30_k0
 BV BND1      y_s80_i31_j30_k1
 BV BND1      y_s80_i31_j30_k2
 BV BND1      y_s80_i32_j40_k0
 BV BND1      y_s80_i32_j40_k1
 BV BND1      y_s80_i32_j40_k2
 BV BND1      y_s80_i33_j35_k0
 BV BND1      y_s80_i33_j35_k1
 BV BND1      y_s80_i33_j35_k2
 BV BND1      y_s80_i34_j33_k0
 BV BND1      y_s80_i34_j33_k1
 BV BND1      y_s80_i34_j33_k2
 BV BND1      y_s80_i35_j32_k0
 BV BND1      y_s80_i35_j32_k1
 BV BND1      y_s80_i35_j32_k2
 BV BND1      y_s80_i36_j49_k0
 BV BND1      y_s80_i36_j49_k1
 BV BND1      y_s80_i36_j49_k2
 BV BND1      y_s80_i37_j39_k0
 BV BND1      y_s80_i37_j39_k1
 BV BND1      y_s80_i37_j39_k2
 BV BND1      y_s80_i38_j15_k0
 BV BND1      y_s80_i38_j15_k1
 BV BND1      y_s80_i38_j15_k2
 BV BND1      y_s80_i39_j53_k0
 BV BND1      y_s80_i39_j53_k1
 BV BND1      y_s80_i39_j53_k2
 BV BND1      y_s80_i40_j37_k0
 BV BND1      y_s80_i40_j37_k1
 BV BND1      y_s80_i40_j37_k2
 BV BND1      y_s80_i41_j4_k0
 BV BND1      y_s80_i41_j4_k1
 BV BND1      y_s80_i41_j4_k2
 BV BND1      y_s80_i42_j44_k0
 BV BND1      y_s80_i42_j44_k1
 BV BND1      y_s80_i42_j44_k2
 BV BND1      y_s80_i43_j19_k0
 BV BND1      y_s80_i43_j19_k1
 BV BND1      y_s80_i43_j19_k2
 BV BND1      y_s80_i44_j50_k0
 BV BND1      y_s80_i44_j50_k1
 BV BND1      y_s80_i44_j50_k2
 BV BND1      y_s80_i45_j18_k0
 BV BND1      y_s80_i45_j18_k1
 BV BND1      y_s80_i45_j18_k2
 BV BND1      y_s80_i46_j42_k0
 BV BND1      y_s80_i46_j42_k1
 BV BND1      y_s80_i46_j42_k2
 BV BND1      y_s80_i47_j41_k0
 BV BND1      y_s80_i47_j41_k1
 BV BND1      y_s80_i47_j41_k2
 BV BND1      y_s80_i48_j51_k0
 BV BND1      y_s80_i48_j51_k1
 BV BND1      y_s80_i48_j51_k2
 BV BND1      y_s80_i49_j26_k0
 BV BND1      y_s80_i49_j26_k1
 BV BND1      y_s80_i49_j26_k2
 BV BND1      y_s80_i50_j48_k0
 BV BND1      y_s80_i50_j48_k1
 BV BND1      y_s80_i50_j48_k2
 BV BND1      y_s80_i51_j36_k0
 BV BND1      y_s80_i51_j36_k1
 BV BND1      y_s80_i51_j36_k2
 BV BND1      y_s80_i52_j47_k0
 BV BND1      y_s80_i52_j47_k1
 BV BND1      y_s80_i52_j47_k2
 BV BND1      y_s80_i53_j43_k0
 BV BND1      y_s80_i53_j43_k1
 BV BND1      y_s80_i53_j43_k2
 BV BND1      y_s55_i0_j2_k0
 BV BND1      y_s55_i0_j2_k1
 BV BND1      y_s55_i0_j2_k2
 BV BND1      y_s55_i1_j22_k0
 BV BND1      y_s55_i1_j22_k1
 BV BND1      y_s55_i1_j22_k2
 BV BND1      y_s55_i2_j1_k0
 BV BND1      y_s55_i2_j1_k1
 BV BND1      y_s55_i2_j1_k2
 BV BND1      y_s55_i3_j9_k0
 BV BND1      y_s55_i3_j9_k1
 BV BND1      y_s55_i3_j9_k2
 BV BND1      y_s55_i4_j34_k0
 BV BND1      y_s55_i4_j34_k1
 BV BND1      y_s55_i4_j34_k2
 BV BND1      y_s55_i5_j0_k0
 BV BND1      y_s55_i5_j0_k1
 BV BND1      y_s55_i5_j0_k2
 BV BND1      y_s55_i6_j52_k0
 BV BND1      y_s55_i6_j52_k1
 BV BND1      y_s55_i6_j52_k2
 BV BND1      y_s55_i7_j3_k0
 BV BND1      y_s55_i7_j3_k1
 BV BND1      y_s55_i7_j3_k2
 BV BND1      y_s55_i8_j10_k0
 BV BND1      y_s55_i8_j10_k1
 BV BND1      y_s55_i8_j10_k2
 BV BND1      y_s55_i9_j6_k0
 BV BND1      y_s55_i9_j6_k1
 BV BND1      y_s55_i9_j6_k2
 BV BND1      y_s55_i10_j5_k0
 BV BND1      y_s55_i10_j5_k1
 BV BND1      y_s55_i10_j5_k2
 BV BND1      y_s55_i11_j8_k0
 BV BND1      y_s55_i11_j8_k1
 BV BND1      y_s55_i11_j8_k2
 BV BND1      y_s55_i12_j11_k0
 BV BND1      y_s55_i12_j11_k1
 BV BND1      y_s55_i12_j11_k2
 BV BND1      y_s55_i13_j14_k0
 BV BND1      y_s55_i13_j14_k1
 BV BND1      y_s55_i13_j14_k2
 BV BND1      y_s55_i14_j12_k0
 BV BND1      y_s55_i14_j12_k1
 BV BND1      y_s55_i14_j12_k2
 BV BND1      y_s55_i15_j13_k0
 BV BND1      y_s55_i15_j13_k1
 BV BND1      y_s55_i15_j13_k2
 BV BND1      y_s55_i16_j17_k0
 BV BND1      y_s55_i16_j17_k1
 BV BND1      y_s55_i16_j17_k2
 BV BND1      y_s55_i17_j38_k0
 BV BND1      y_s55_i17_j38_k1
 BV BND1      y_s55_i17_j38_k2
 BV BND1      y_s55_i18_j20_k0
 BV BND1      y_s55_i18_j20_k1
 BV BND1      y_s55_i18_j20_k2
 BV BND1      y_s55_i19_j45_k0
 BV BND1      y_s55_i19_j45_k1
 BV BND1      y_s55_i19_j45_k2
 BV BND1      y_s55_i20_j16_k0
 BV BND1      y_s55_i20_j16_k1
 BV BND1      y_s55_i20_j16_k2
 BV BND1      y_s55_i21_j24_k0
 BV BND1      y_s55_i21_j24_k1
 BV BND1      y_s55_i21_j24_k2
 BV BND1      y_s55_i22_j21_k0
 BV BND1      y_s55_i22_j21_k1
 BV BND1      y_s55_i22_j21_k2
 BV BND1      y_s55_i23_j46_k0
 BV BND1      y_s55_i23_j46_k1
 BV BND1      y_s55_i23_j46_k2
 BV BND1      y_s55_i24_j23_k0
 BV BND1      y_s55_i24_j23_k1
 BV BND1      y_s55_i24_j23_k2
 BV BND1      y_s55_i25_j31_k0
 BV BND1      y_s55_i25_j31_k1
 BV BND1      y_s55_i25_j31_k2
 BV BND1      y_s55_i26_j27_k0
 BV BND1      y_s55_i26_j27_k1
 BV BND1      y_s55_i26_j27_k2
 BV BND1      y_s55_i27_j28_k0
 BV BND1      y_s55_i27_j28_k1
 BV BND1      y_s55_i27_j28_k2
 BV BND1      y_s55_i28_j25_k0
 BV BND1      y_s55_i28_j25_k1
 BV BND1      y_s55_i28_j25_k2
 BV BND1      y_s55_i29_j7_k0
 BV BND1      y_s55_i29_j7_k1
 BV BND1      y_s55_i29_j7_k2
 BV BND1      y_s55_i30_j29_k0
 BV BND1      y_s55_i30_j29_k1
 BV BND1      y_s55_i30_j29_k2
 BV BND1      y_s55_i31_j30_k0
 BV BND1      y_s55_i31_j30_k1
 BV BND1      y_s55_i31_j30_k2
 BV BND1      y_s55_i32_j40_k0
 BV BND1      y_s55_i32_j40_k1
 BV BND1      y_s55_i32_j40_k2
 BV BND1      y_s55_i33_j35_k0
 BV BND1      y_s55_i33_j35_k1
 BV BND1      y_s55_i33_j35_k2
 BV BND1      y_s55_i34_j33_k0
 BV BND1      y_s55_i34_j33_k1
 BV BND1      y_s55_i34_j33_k2
 BV BND1      y_s55_i35_j32_k0
 BV BND1      y_s55_i35_j32_k1
 BV BND1      y_s55_i35_j32_k2
 BV BND1      y_s55_i36_j49_k0
 BV BND1      y_s55_i36_j49_k1
 BV BND1      y_s55_i36_j49_k2
 BV BND1      y_s55_i37_j39_k0
 BV BND1      y_s55_i37_j39_k1
 BV BND1      y_s55_i37_j39_k2
 BV BND1      y_s55_i38_j15_k0
 BV BND1      y_s55_i38_j15_k1
 BV BND1      y_s55_i38_j15_k2
 BV BND1      y_s55_i39_j53_k0
 BV BND1      y_s55_i39_j53_k1
 BV BND1      y_s55_i39_j53_k2
 BV BND1      y_s55_i40_j37_k0
 BV BND1      y_s55_i40_j37_k1
 BV BND1      y_s55_i40_j37_k2
 BV BND1      y_s55_i41_j4_k0
 BV BND1      y_s55_i41_j4_k1
 BV BND1      y_s55_i41_j4_k2
 BV BND1      y_s55_i42_j44_k0
 BV BND1      y_s55_i42_j44_k1
 BV BND1      y_s55_i42_j44_k2
 BV BND1      y_s55_i43_j19_k0
 BV BND1      y_s55_i43_j19_k1
 BV BND1      y_s55_i43_j19_k2
 BV BND1      y_s55_i44_j50_k0
 BV BND1      y_s55_i44_j50_k1
 BV BND1      y_s55_i44_j50_k2
 BV BND1      y_s55_i45_j18_k0
 BV BND1      y_s55_i45_j18_k1
 BV BND1      y_s55_i45_j18_k2
 BV BND1      y_s55_i46_j42_k0
 BV BND1      y_s55_i46_j42_k1
 BV BND1      y_s55_i46_j42_k2
 BV BND1      y_s55_i47_j41_k0
 BV BND1      y_s55_i47_j41_k1
 BV BND1      y_s55_i47_j41_k2
 BV BND1      y_s55_i48_j51_k0
 BV BND1      y_s55_i48_j51_k1
 BV BND1      y_s55_i48_j51_k2
 BV BND1      y_s55_i49_j26_k0
 BV BND1      y_s55_i49_j26_k1
 BV BND1      y_s55_i49_j26_k2
 BV BND1      y_s55_i50_j48_k0
 BV BND1      y_s55_i50_j48_k1
 BV BND1      y_s55_i50_j48_k2
 BV BND1      y_s55_i51_j36_k0
 BV BND1      y_s55_i51_j36_k1
 BV BND1      y_s55_i51_j36_k2
 BV BND1      y_s55_i52_j47_k0
 BV BND1      y_s55_i52_j47_k1
 BV BND1      y_s55_i52_j47_k2
 BV BND1      y_s55_i53_j43_k0
 BV BND1      y_s55_i53_j43_k1
 BV BND1      y_s55_i53_j43_k2
 BV BND1      y_s4_i0_j2_k0
 BV BND1      y_s4_i0_j2_k1
 BV BND1      y_s4_i0_j2_k2
 BV BND1      y_s4_i1_j22_k0
 BV BND1      y_s4_i1_j22_k1
 BV BND1      y_s4_i1_j22_k2
 BV BND1      y_s4_i2_j1_k0
 BV BND1      y_s4_i2_j1_k1
 BV BND1      y_s4_i2_j1_k2
 BV BND1      y_s4_i3_j9_k0
 BV BND1      y_s4_i3_j9_k1
 BV BND1      y_s4_i3_j9_k2
 BV BND1      y_s4_i4_j34_k0
 BV BND1      y_s4_i4_j34_k1
 BV BND1      y_s4_i4_j34_k2
 BV BND1      y_s4_i5_j0_k0
 BV BND1      y_s4_i5_j0_k1
 BV BND1      y_s4_i5_j0_k2
 BV BND1      y_s4_i6_j52_k0
 BV BND1      y_s4_i6_j52_k1
 BV BND1      y_s4_i6_j52_k2
 BV BND1      y_s4_i7_j3_k0
 BV BND1      y_s4_i7_j3_k1
 BV BND1      y_s4_i7_j3_k2
 BV BND1      y_s4_i8_j10_k0
 BV BND1      y_s4_i8_j10_k1
 BV BND1      y_s4_i8_j10_k2
 BV BND1      y_s4_i9_j6_k0
 BV BND1      y_s4_i9_j6_k1
 BV BND1      y_s4_i9_j6_k2
 BV BND1      y_s4_i10_j5_k0
 BV BND1      y_s4_i10_j5_k1
 BV BND1      y_s4_i10_j5_k2
 BV BND1      y_s4_i11_j8_k0
 BV BND1      y_s4_i11_j8_k1
 BV BND1      y_s4_i11_j8_k2
 BV BND1      y_s4_i12_j11_k0
 BV BND1      y_s4_i12_j11_k1
 BV BND1      y_s4_i12_j11_k2
 BV BND1      y_s4_i13_j14_k0
 BV BND1      y_s4_i13_j14_k1
 BV BND1      y_s4_i13_j14_k2
 BV BND1      y_s4_i14_j12_k0
 BV BND1      y_s4_i14_j12_k1
 BV BND1      y_s4_i14_j12_k2
 BV BND1      y_s4_i15_j13_k0
 BV BND1      y_s4_i15_j13_k1
 BV BND1      y_s4_i15_j13_k2
 BV BND1      y_s4_i16_j17_k0
 BV BND1      y_s4_i16_j17_k1
 BV BND1      y_s4_i16_j17_k2
 BV BND1      y_s4_i17_j38_k0
 BV BND1      y_s4_i17_j38_k1
 BV BND1      y_s4_i17_j38_k2
 BV BND1      y_s4_i18_j20_k0
 BV BND1      y_s4_i18_j20_k1
 BV BND1      y_s4_i18_j20_k2
 BV BND1      y_s4_i19_j45_k0
 BV BND1      y_s4_i19_j45_k1
 BV BND1      y_s4_i19_j45_k2
 BV BND1      y_s4_i20_j16_k0
 BV BND1      y_s4_i20_j16_k1
 BV BND1      y_s4_i20_j16_k2
 BV BND1      y_s4_i21_j24_k0
 BV BND1      y_s4_i21_j24_k1
 BV BND1      y_s4_i21_j24_k2
 BV BND1      y_s4_i22_j21_k0
 BV BND1      y_s4_i22_j21_k1
 BV BND1      y_s4_i22_j21_k2
 BV BND1      y_s4_i23_j46_k0
 BV BND1      y_s4_i23_j46_k1
 BV BND1      y_s4_i23_j46_k2
 BV BND1      y_s4_i24_j23_k0
 BV BND1      y_s4_i24_j23_k1
 BV BND1      y_s4_i24_j23_k2
 BV BND1      y_s4_i25_j31_k0
 BV BND1      y_s4_i25_j31_k1
 BV BND1      y_s4_i25_j31_k2
 BV BND1      y_s4_i26_j27_k0
 BV BND1      y_s4_i26_j27_k1
 BV BND1      y_s4_i26_j27_k2
 BV BND1      y_s4_i27_j28_k0
 BV BND1      y_s4_i27_j28_k1
 BV BND1      y_s4_i27_j28_k2
 BV BND1      y_s4_i28_j25_k0
 BV BND1      y_s4_i28_j25_k1
 BV BND1      y_s4_i28_j25_k2
 BV BND1      y_s4_i29_j7_k0
 BV BND1      y_s4_i29_j7_k1
 BV BND1      y_s4_i29_j7_k2
 BV BND1      y_s4_i30_j29_k0
 BV BND1      y_s4_i30_j29_k1
 BV BND1      y_s4_i30_j29_k2
 BV BND1      y_s4_i31_j30_k0
 BV BND1      y_s4_i31_j30_k1
 BV BND1      y_s4_i31_j30_k2
 BV BND1      y_s4_i32_j40_k0
 BV BND1      y_s4_i32_j40_k1
 BV BND1      y_s4_i32_j40_k2
 BV BND1      y_s4_i33_j35_k0
 BV BND1      y_s4_i33_j35_k1
 BV BND1      y_s4_i33_j35_k2
 BV BND1      y_s4_i34_j33_k0
 BV BND1      y_s4_i34_j33_k1
 BV BND1      y_s4_i34_j33_k2
 BV BND1      y_s4_i35_j32_k0
 BV BND1      y_s4_i35_j32_k1
 BV BND1      y_s4_i35_j32_k2
 BV BND1      y_s4_i36_j49_k0
 BV BND1      y_s4_i36_j49_k1
 BV BND1      y_s4_i36_j49_k2
 BV BND1      y_s4_i37_j39_k0
 BV BND1      y_s4_i37_j39_k1
 BV BND1      y_s4_i37_j39_k2
 BV BND1      y_s4_i38_j15_k0
 BV BND1      y_s4_i38_j15_k1
 BV BND1      y_s4_i38_j15_k2
 BV BND1      y_s4_i39_j53_k0
 BV BND1      y_s4_i39_j53_k1
 BV BND1      y_s4_i39_j53_k2
 BV BND1      y_s4_i40_j37_k0
 BV BND1      y_s4_i40_j37_k1
 BV BND1      y_s4_i40_j37_k2
 BV BND1      y_s4_i41_j4_k0
 BV BND1      y_s4_i41_j4_k1
 BV BND1      y_s4_i41_j4_k2
 BV BND1      y_s4_i42_j44_k0
 BV BND1      y_s4_i42_j44_k1
 BV BND1      y_s4_i42_j44_k2
 BV BND1      y_s4_i43_j19_k0
 BV BND1      y_s4_i43_j19_k1
 BV BND1      y_s4_i43_j19_k2
 BV BND1      y_s4_i44_j50_k0
 BV BND1      y_s4_i44_j50_k1
 BV BND1      y_s4_i44_j50_k2
 BV BND1      y_s4_i45_j18_k0
 BV BND1      y_s4_i45_j18_k1
 BV BND1      y_s4_i45_j18_k2
 BV BND1      y_s4_i46_j42_k0
 BV BND1      y_s4_i46_j42_k1
 BV BND1      y_s4_i46_j42_k2
 BV BND1      y_s4_i47_j41_k0
 BV BND1      y_s4_i47_j41_k1
 BV BND1      y_s4_i47_j41_k2
 BV BND1      y_s4_i48_j51_k0
 BV BND1      y_s4_i48_j51_k1
 BV BND1      y_s4_i48_j51_k2
 BV BND1      y_s4_i49_j26_k0
 BV BND1      y_s4_i49_j26_k1
 BV BND1      y_s4_i49_j26_k2
 BV BND1      y_s4_i50_j48_k0
 BV BND1      y_s4_i50_j48_k1
 BV BND1      y_s4_i50_j48_k2
 BV BND1      y_s4_i51_j36_k0
 BV BND1      y_s4_i51_j36_k1
 BV BND1      y_s4_i51_j36_k2
 BV BND1      y_s4_i52_j47_k0
 BV BND1      y_s4_i52_j47_k1
 BV BND1      y_s4_i52_j47_k2
 BV BND1      y_s4_i53_j43_k0
 BV BND1      y_s4_i53_j43_k1
 BV BND1      y_s4_i53_j43_k2
 BV BND1      y_s5_i0_j2_k0
 BV BND1      y_s5_i0_j2_k1
 BV BND1      y_s5_i0_j2_k2
 BV BND1      y_s5_i1_j22_k0
 BV BND1      y_s5_i1_j22_k1
 BV BND1      y_s5_i1_j22_k2
 BV BND1      y_s5_i2_j1_k0
 BV BND1      y_s5_i2_j1_k1
 BV BND1      y_s5_i2_j1_k2
 BV BND1      y_s5_i3_j9_k0
 BV BND1      y_s5_i3_j9_k1
 BV BND1      y_s5_i3_j9_k2
 BV BND1      y_s5_i4_j34_k0
 BV BND1      y_s5_i4_j34_k1
 BV BND1      y_s5_i4_j34_k2
 BV BND1      y_s5_i5_j0_k0
 BV BND1      y_s5_i5_j0_k1
 BV BND1      y_s5_i5_j0_k2
 BV BND1      y_s5_i6_j52_k0
 BV BND1      y_s5_i6_j52_k1
 BV BND1      y_s5_i6_j52_k2
 BV BND1      y_s5_i7_j3_k0
 BV BND1      y_s5_i7_j3_k1
 BV BND1      y_s5_i7_j3_k2
 BV BND1      y_s5_i8_j10_k0
 BV BND1      y_s5_i8_j10_k1
 BV BND1      y_s5_i8_j10_k2
 BV BND1      y_s5_i9_j6_k0
 BV BND1      y_s5_i9_j6_k1
 BV BND1      y_s5_i9_j6_k2
 BV BND1      y_s5_i10_j5_k0
 BV BND1      y_s5_i10_j5_k1
 BV BND1      y_s5_i10_j5_k2
 BV BND1      y_s5_i11_j8_k0
 BV BND1      y_s5_i11_j8_k1
 BV BND1      y_s5_i11_j8_k2
 BV BND1      y_s5_i12_j11_k0
 BV BND1      y_s5_i12_j11_k1
 BV BND1      y_s5_i12_j11_k2
 BV BND1      y_s5_i13_j14_k0
 BV BND1      y_s5_i13_j14_k1
 BV BND1      y_s5_i13_j14_k2
 BV BND1      y_s5_i14_j12_k0
 BV BND1      y_s5_i14_j12_k1
 BV BND1      y_s5_i14_j12_k2
 BV BND1      y_s5_i15_j13_k0
 BV BND1      y_s5_i15_j13_k1
 BV BND1      y_s5_i15_j13_k2
 BV BND1      y_s5_i16_j17_k0
 BV BND1      y_s5_i16_j17_k1
 BV BND1      y_s5_i16_j17_k2
 BV BND1      y_s5_i17_j38_k0
 BV BND1      y_s5_i17_j38_k1
 BV BND1      y_s5_i17_j38_k2
 BV BND1      y_s5_i18_j20_k0
 BV BND1      y_s5_i18_j20_k1
 BV BND1      y_s5_i18_j20_k2
 BV BND1      y_s5_i19_j45_k0
 BV BND1      y_s5_i19_j45_k1
 BV BND1      y_s5_i19_j45_k2
 BV BND1      y_s5_i20_j16_k0
 BV BND1      y_s5_i20_j16_k1
 BV BND1      y_s5_i20_j16_k2
 BV BND1      y_s5_i21_j24_k0
 BV BND1      y_s5_i21_j24_k1
 BV BND1      y_s5_i21_j24_k2
 BV BND1      y_s5_i22_j21_k0
 BV BND1      y_s5_i22_j21_k1
 BV BND1      y_s5_i22_j21_k2
 BV BND1      y_s5_i23_j46_k0
 BV BND1      y_s5_i23_j46_k1
 BV BND1      y_s5_i23_j46_k2
 BV BND1      y_s5_i24_j23_k0
 BV BND1      y_s5_i24_j23_k1
 BV BND1      y_s5_i24_j23_k2
 BV BND1      y_s5_i25_j31_k0
 BV BND1      y_s5_i25_j31_k1
 BV BND1      y_s5_i25_j31_k2
 BV BND1      y_s5_i26_j27_k0
 BV BND1      y_s5_i26_j27_k1
 BV BND1      y_s5_i26_j27_k2
 BV BND1      y_s5_i27_j28_k0
 BV BND1      y_s5_i27_j28_k1
 BV BND1      y_s5_i27_j28_k2
 BV BND1      y_s5_i28_j25_k0
 BV BND1      y_s5_i28_j25_k1
 BV BND1      y_s5_i28_j25_k2
 BV BND1      y_s5_i29_j7_k0
 BV BND1      y_s5_i29_j7_k1
 BV BND1      y_s5_i29_j7_k2
 BV BND1      y_s5_i30_j29_k0
 BV BND1      y_s5_i30_j29_k1
 BV BND1      y_s5_i30_j29_k2
 BV BND1      y_s5_i31_j30_k0
 BV BND1      y_s5_i31_j30_k1
 BV BND1      y_s5_i31_j30_k2
 BV BND1      y_s5_i32_j40_k0
 BV BND1      y_s5_i32_j40_k1
 BV BND1      y_s5_i32_j40_k2
 BV BND1      y_s5_i33_j35_k0
 BV BND1      y_s5_i33_j35_k1
 BV BND1      y_s5_i33_j35_k2
 BV BND1      y_s5_i34_j33_k0
 BV BND1      y_s5_i34_j33_k1
 BV BND1      y_s5_i34_j33_k2
 BV BND1      y_s5_i35_j32_k0
 BV BND1      y_s5_i35_j32_k1
 BV BND1      y_s5_i35_j32_k2
 BV BND1      y_s5_i36_j49_k0
 BV BND1      y_s5_i36_j49_k1
 BV BND1      y_s5_i36_j49_k2
 BV BND1      y_s5_i37_j39_k0
 BV BND1      y_s5_i37_j39_k1
 BV BND1      y_s5_i37_j39_k2
 BV BND1      y_s5_i38_j15_k0
 BV BND1      y_s5_i38_j15_k1
 BV BND1      y_s5_i38_j15_k2
 BV BND1      y_s5_i39_j53_k0
 BV BND1      y_s5_i39_j53_k1
 BV BND1      y_s5_i39_j53_k2
 BV BND1      y_s5_i40_j37_k0
 BV BND1      y_s5_i40_j37_k1
 BV BND1      y_s5_i40_j37_k2
 BV BND1      y_s5_i41_j4_k0
 BV BND1      y_s5_i41_j4_k1
 BV BND1      y_s5_i41_j4_k2
 BV BND1      y_s5_i42_j44_k0
 BV BND1      y_s5_i42_j44_k1
 BV BND1      y_s5_i42_j44_k2
 BV BND1      y_s5_i43_j19_k0
 BV BND1      y_s5_i43_j19_k1
 BV BND1      y_s5_i43_j19_k2
 BV BND1      y_s5_i44_j50_k0
 BV BND1      y_s5_i44_j50_k1
 BV BND1      y_s5_i44_j50_k2
 BV BND1      y_s5_i45_j18_k0
 BV BND1      y_s5_i45_j18_k1
 BV BND1      y_s5_i45_j18_k2
 BV BND1      y_s5_i46_j42_k0
 BV BND1      y_s5_i46_j42_k1
 BV BND1      y_s5_i46_j42_k2
 BV BND1      y_s5_i47_j41_k0
 BV BND1      y_s5_i47_j41_k1
 BV BND1      y_s5_i47_j41_k2
 BV BND1      y_s5_i48_j51_k0
 BV BND1      y_s5_i48_j51_k1
 BV BND1      y_s5_i48_j51_k2
 BV BND1      y_s5_i49_j26_k0
 BV BND1      y_s5_i49_j26_k1
 BV BND1      y_s5_i49_j26_k2
 BV BND1      y_s5_i50_j48_k0
 BV BND1      y_s5_i50_j48_k1
 BV BND1      y_s5_i50_j48_k2
 BV BND1      y_s5_i51_j36_k0
 BV BND1      y_s5_i51_j36_k1
 BV BND1      y_s5_i51_j36_k2
 BV BND1      y_s5_i52_j47_k0
 BV BND1      y_s5_i52_j47_k1
 BV BND1      y_s5_i52_j47_k2
 BV BND1      y_s5_i53_j43_k0
 BV BND1      y_s5_i53_j43_k1
 BV BND1      y_s5_i53_j43_k2
 BV BND1      y_s62_i0_j2_k0
 BV BND1      y_s62_i0_j2_k1
 BV BND1      y_s62_i0_j2_k2
 BV BND1      y_s62_i1_j22_k0
 BV BND1      y_s62_i1_j22_k1
 BV BND1      y_s62_i1_j22_k2
 BV BND1      y_s62_i2_j1_k0
 BV BND1      y_s62_i2_j1_k1
 BV BND1      y_s62_i2_j1_k2
 BV BND1      y_s62_i3_j9_k0
 BV BND1      y_s62_i3_j9_k1
 BV BND1      y_s62_i3_j9_k2
 BV BND1      y_s62_i4_j34_k0
 BV BND1      y_s62_i4_j34_k1
 BV BND1      y_s62_i4_j34_k2
 BV BND1      y_s62_i5_j0_k0
 BV BND1      y_s62_i5_j0_k1
 BV BND1      y_s62_i5_j0_k2
 BV BND1      y_s62_i6_j52_k0
 BV BND1      y_s62_i6_j52_k1
 BV BND1      y_s62_i6_j52_k2
 BV BND1      y_s62_i7_j3_k0
 BV BND1      y_s62_i7_j3_k1
 BV BND1      y_s62_i7_j3_k2
 BV BND1      y_s62_i8_j10_k0
 BV BND1      y_s62_i8_j10_k1
 BV BND1      y_s62_i8_j10_k2
 BV BND1      y_s62_i9_j6_k0
 BV BND1      y_s62_i9_j6_k1
 BV BND1      y_s62_i9_j6_k2
 BV BND1      y_s62_i10_j5_k0
 BV BND1      y_s62_i10_j5_k1
 BV BND1      y_s62_i10_j5_k2
 BV BND1      y_s62_i11_j8_k0
 BV BND1      y_s62_i11_j8_k1
 BV BND1      y_s62_i11_j8_k2
 BV BND1      y_s62_i12_j11_k0
 BV BND1      y_s62_i12_j11_k1
 BV BND1      y_s62_i12_j11_k2
 BV BND1      y_s62_i13_j14_k0
 BV BND1      y_s62_i13_j14_k1
 BV BND1      y_s62_i13_j14_k2
 BV BND1      y_s62_i14_j12_k0
 BV BND1      y_s62_i14_j12_k1
 BV BND1      y_s62_i14_j12_k2
 BV BND1      y_s62_i15_j13_k0
 BV BND1      y_s62_i15_j13_k1
 BV BND1      y_s62_i15_j13_k2
 BV BND1      y_s62_i16_j17_k0
 BV BND1      y_s62_i16_j17_k1
 BV BND1      y_s62_i16_j17_k2
 BV BND1      y_s62_i17_j38_k0
 BV BND1      y_s62_i17_j38_k1
 BV BND1      y_s62_i17_j38_k2
 BV BND1      y_s62_i18_j20_k0
 BV BND1      y_s62_i18_j20_k1
 BV BND1      y_s62_i18_j20_k2
 BV BND1      y_s62_i19_j45_k0
 BV BND1      y_s62_i19_j45_k1
 BV BND1      y_s62_i19_j45_k2
 BV BND1      y_s62_i20_j16_k0
 BV BND1      y_s62_i20_j16_k1
 BV BND1      y_s62_i20_j16_k2
 BV BND1      y_s62_i21_j24_k0
 BV BND1      y_s62_i21_j24_k1
 BV BND1      y_s62_i21_j24_k2
 BV BND1      y_s62_i22_j21_k0
 BV BND1      y_s62_i22_j21_k1
 BV BND1      y_s62_i22_j21_k2
 BV BND1      y_s62_i23_j46_k0
 BV BND1      y_s62_i23_j46_k1
 BV BND1      y_s62_i23_j46_k2
 BV BND1      y_s62_i24_j23_k0
 BV BND1      y_s62_i24_j23_k1
 BV BND1      y_s62_i24_j23_k2
 BV BND1      y_s62_i25_j31_k0
 BV BND1      y_s62_i25_j31_k1
 BV BND1      y_s62_i25_j31_k2
 BV BND1      y_s62_i26_j27_k0
 BV BND1      y_s62_i26_j27_k1
 BV BND1      y_s62_i26_j27_k2
 BV BND1      y_s62_i27_j28_k0
 BV BND1      y_s62_i27_j28_k1
 BV BND1      y_s62_i27_j28_k2
 BV BND1      y_s62_i28_j25_k0
 BV BND1      y_s62_i28_j25_k1
 BV BND1      y_s62_i28_j25_k2
 BV BND1      y_s62_i29_j7_k0
 BV BND1      y_s62_i29_j7_k1
 BV BND1      y_s62_i29_j7_k2
 BV BND1      y_s62_i30_j29_k0
 BV BND1      y_s62_i30_j29_k1
 BV BND1      y_s62_i30_j29_k2
 BV BND1      y_s62_i31_j30_k0
 BV BND1      y_s62_i31_j30_k1
 BV BND1      y_s62_i31_j30_k2
 BV BND1      y_s62_i32_j40_k0
 BV BND1      y_s62_i32_j40_k1
 BV BND1      y_s62_i32_j40_k2
 BV BND1      y_s62_i33_j35_k0
 BV BND1      y_s62_i33_j35_k1
 BV BND1      y_s62_i33_j35_k2
 BV BND1      y_s62_i34_j33_k0
 BV BND1      y_s62_i34_j33_k1
 BV BND1      y_s62_i34_j33_k2
 BV BND1      y_s62_i35_j32_k0
 BV BND1      y_s62_i35_j32_k1
 BV BND1      y_s62_i35_j32_k2
 BV BND1      y_s62_i36_j49_k0
 BV BND1      y_s62_i36_j49_k1
 BV BND1      y_s62_i36_j49_k2
 BV BND1      y_s62_i37_j39_k0
 BV BND1      y_s62_i37_j39_k1
 BV BND1      y_s62_i37_j39_k2
 BV BND1      y_s62_i38_j15_k0
 BV BND1      y_s62_i38_j15_k1
 BV BND1      y_s62_i38_j15_k2
 BV BND1      y_s62_i39_j53_k0
 BV BND1      y_s62_i39_j53_k1
 BV BND1      y_s62_i39_j53_k2
 BV BND1      y_s62_i40_j37_k0
 BV BND1      y_s62_i40_j37_k1
 BV BND1      y_s62_i40_j37_k2
 BV BND1      y_s62_i41_j4_k0
 BV BND1      y_s62_i41_j4_k1
 BV BND1      y_s62_i41_j4_k2
 BV BND1      y_s62_i42_j44_k0
 BV BND1      y_s62_i42_j44_k1
 BV BND1      y_s62_i42_j44_k2
 BV BND1      y_s62_i43_j19_k0
 BV BND1      y_s62_i43_j19_k1
 BV BND1      y_s62_i43_j19_k2
 BV BND1      y_s62_i44_j50_k0
 BV BND1      y_s62_i44_j50_k1
 BV BND1      y_s62_i44_j50_k2
 BV BND1      y_s62_i45_j18_k0
 BV BND1      y_s62_i45_j18_k1
 BV BND1      y_s62_i45_j18_k2
 BV BND1      y_s62_i46_j42_k0
 BV BND1      y_s62_i46_j42_k1
 BV BND1      y_s62_i46_j42_k2
 BV BND1      y_s62_i47_j41_k0
 BV BND1      y_s62_i47_j41_k1
 BV BND1      y_s62_i47_j41_k2
 BV BND1      y_s62_i48_j51_k0
 BV BND1      y_s62_i48_j51_k1
 BV BND1      y_s62_i48_j51_k2
 BV BND1      y_s62_i49_j26_k0
 BV BND1      y_s62_i49_j26_k1
 BV BND1      y_s62_i49_j26_k2
 BV BND1      y_s62_i50_j48_k0
 BV BND1      y_s62_i50_j48_k1
 BV BND1      y_s62_i50_j48_k2
 BV BND1      y_s62_i51_j36_k0
 BV BND1      y_s62_i51_j36_k1
 BV BND1      y_s62_i51_j36_k2
 BV BND1      y_s62_i52_j47_k0
 BV BND1      y_s62_i52_j47_k1
 BV BND1      y_s62_i52_j47_k2
 BV BND1      y_s62_i53_j43_k0
 BV BND1      y_s62_i53_j43_k1
 BV BND1      y_s62_i53_j43_k2
 BV BND1      y_s78_i0_j2_k0
 BV BND1      y_s78_i0_j2_k1
 BV BND1      y_s78_i0_j2_k2
 BV BND1      y_s78_i1_j22_k0
 BV BND1      y_s78_i1_j22_k1
 BV BND1      y_s78_i1_j22_k2
 BV BND1      y_s78_i2_j1_k0
 BV BND1      y_s78_i2_j1_k1
 BV BND1      y_s78_i2_j1_k2
 BV BND1      y_s78_i3_j9_k0
 BV BND1      y_s78_i3_j9_k1
 BV BND1      y_s78_i3_j9_k2
 BV BND1      y_s78_i4_j34_k0
 BV BND1      y_s78_i4_j34_k1
 BV BND1      y_s78_i4_j34_k2
 BV BND1      y_s78_i5_j0_k0
 BV BND1      y_s78_i5_j0_k1
 BV BND1      y_s78_i5_j0_k2
 BV BND1      y_s78_i6_j52_k0
 BV BND1      y_s78_i6_j52_k1
 BV BND1      y_s78_i6_j52_k2
 BV BND1      y_s78_i7_j3_k0
 BV BND1      y_s78_i7_j3_k1
 BV BND1      y_s78_i7_j3_k2
 BV BND1      y_s78_i8_j10_k0
 BV BND1      y_s78_i8_j10_k1
 BV BND1      y_s78_i8_j10_k2
 BV BND1      y_s78_i9_j6_k0
 BV BND1      y_s78_i9_j6_k1
 BV BND1      y_s78_i9_j6_k2
 BV BND1      y_s78_i10_j5_k0
 BV BND1      y_s78_i10_j5_k1
 BV BND1      y_s78_i10_j5_k2
 BV BND1      y_s78_i11_j8_k0
 BV BND1      y_s78_i11_j8_k1
 BV BND1      y_s78_i11_j8_k2
 BV BND1      y_s78_i12_j11_k0
 BV BND1      y_s78_i12_j11_k1
 BV BND1      y_s78_i12_j11_k2
 BV BND1      y_s78_i13_j14_k0
 BV BND1      y_s78_i13_j14_k1
 BV BND1      y_s78_i13_j14_k2
 BV BND1      y_s78_i14_j12_k0
 BV BND1      y_s78_i14_j12_k1
 BV BND1      y_s78_i14_j12_k2
 BV BND1      y_s78_i15_j13_k0
 BV BND1      y_s78_i15_j13_k1
 BV BND1      y_s78_i15_j13_k2
 BV BND1      y_s78_i16_j17_k0
 BV BND1      y_s78_i16_j17_k1
 BV BND1      y_s78_i16_j17_k2
 BV BND1      y_s78_i17_j38_k0
 BV BND1      y_s78_i17_j38_k1
 BV BND1      y_s78_i17_j38_k2
 BV BND1      y_s78_i18_j20_k0
 BV BND1      y_s78_i18_j20_k1
 BV BND1      y_s78_i18_j20_k2
 BV BND1      y_s78_i19_j45_k0
 BV BND1      y_s78_i19_j45_k1
 BV BND1      y_s78_i19_j45_k2
 BV BND1      y_s78_i20_j16_k0
 BV BND1      y_s78_i20_j16_k1
 BV BND1      y_s78_i20_j16_k2
 BV BND1      y_s78_i21_j24_k0
 BV BND1      y_s78_i21_j24_k1
 BV BND1      y_s78_i21_j24_k2
 BV BND1      y_s78_i22_j21_k0
 BV BND1      y_s78_i22_j21_k1
 BV BND1      y_s78_i22_j21_k2
 BV BND1      y_s78_i23_j46_k0
 BV BND1      y_s78_i23_j46_k1
 BV BND1      y_s78_i23_j46_k2
 BV BND1      y_s78_i24_j23_k0
 BV BND1      y_s78_i24_j23_k1
 BV BND1      y_s78_i24_j23_k2
 BV BND1      y_s78_i25_j31_k0
 BV BND1      y_s78_i25_j31_k1
 BV BND1      y_s78_i25_j31_k2
 BV BND1      y_s78_i26_j27_k0
 BV BND1      y_s78_i26_j27_k1
 BV BND1      y_s78_i26_j27_k2
 BV BND1      y_s78_i27_j28_k0
 BV BND1      y_s78_i27_j28_k1
 BV BND1      y_s78_i27_j28_k2
 BV BND1      y_s78_i28_j25_k0
 BV BND1      y_s78_i28_j25_k1
 BV BND1      y_s78_i28_j25_k2
 BV BND1      y_s78_i29_j7_k0
 BV BND1      y_s78_i29_j7_k1
 BV BND1      y_s78_i29_j7_k2
 BV BND1      y_s78_i30_j29_k0
 BV BND1      y_s78_i30_j29_k1
 BV BND1      y_s78_i30_j29_k2
 BV BND1      y_s78_i31_j30_k0
 BV BND1      y_s78_i31_j30_k1
 BV BND1      y_s78_i31_j30_k2
 BV BND1      y_s78_i32_j40_k0
 BV BND1      y_s78_i32_j40_k1
 BV BND1      y_s78_i32_j40_k2
 BV BND1      y_s78_i33_j35_k0
 BV BND1      y_s78_i33_j35_k1
 BV BND1      y_s78_i33_j35_k2
 BV BND1      y_s78_i34_j33_k0
 BV BND1      y_s78_i34_j33_k1
 BV BND1      y_s78_i34_j33_k2
 BV BND1      y_s78_i35_j32_k0
 BV BND1      y_s78_i35_j32_k1
 BV BND1      y_s78_i35_j32_k2
 BV BND1      y_s78_i36_j49_k0
 BV BND1      y_s78_i36_j49_k1
 BV BND1      y_s78_i36_j49_k2
 BV BND1      y_s78_i37_j39_k0
 BV BND1      y_s78_i37_j39_k1
 BV BND1      y_s78_i37_j39_k2
 BV BND1      y_s78_i38_j15_k0
 BV BND1      y_s78_i38_j15_k1
 BV BND1      y_s78_i38_j15_k2
 BV BND1      y_s78_i39_j53_k0
 BV BND1      y_s78_i39_j53_k1
 BV BND1      y_s78_i39_j53_k2
 BV BND1      y_s78_i40_j37_k0
 BV BND1      y_s78_i40_j37_k1
 BV BND1      y_s78_i40_j37_k2
 BV BND1      y_s78_i41_j4_k0
 BV BND1      y_s78_i41_j4_k1
 BV BND1      y_s78_i41_j4_k2
 BV BND1      y_s78_i42_j44_k0
 BV BND1      y_s78_i42_j44_k1
 BV BND1      y_s78_i42_j44_k2
 BV BND1      y_s78_i43_j19_k0
 BV BND1      y_s78_i43_j19_k1
 BV BND1      y_s78_i43_j19_k2
 BV BND1      y_s78_i44_j50_k0
 BV BND1      y_s78_i44_j50_k1
 BV BND1      y_s78_i44_j50_k2
 BV BND1      y_s78_i45_j18_k0
 BV BND1      y_s78_i45_j18_k1
 BV BND1      y_s78_i45_j18_k2
 BV BND1      y_s78_i46_j42_k0
 BV BND1      y_s78_i46_j42_k1
 BV BND1      y_s78_i46_j42_k2
 BV BND1      y_s78_i47_j41_k0
 BV BND1      y_s78_i47_j41_k1
 BV BND1      y_s78_i47_j41_k2
 BV BND1      y_s78_i48_j51_k0
 BV BND1      y_s78_i48_j51_k1
 BV BND1      y_s78_i48_j51_k2
 BV BND1      y_s78_i49_j26_k0
 BV BND1      y_s78_i49_j26_k1
 BV BND1      y_s78_i49_j26_k2
 BV BND1      y_s78_i50_j48_k0
 BV BND1      y_s78_i50_j48_k1
 BV BND1      y_s78_i50_j48_k2
 BV BND1      y_s78_i51_j36_k0
 BV BND1      y_s78_i51_j36_k1
 BV BND1      y_s78_i51_j36_k2
 BV BND1      y_s78_i52_j47_k0
 BV BND1      y_s78_i52_j47_k1
 BV BND1      y_s78_i52_j47_k2
 BV BND1      y_s78_i53_j43_k0
 BV BND1      y_s78_i53_j43_k1
 BV BND1      y_s78_i53_j43_k2
 BV BND1      y_s96_i0_j2_k0
 BV BND1      y_s96_i0_j2_k1
 BV BND1      y_s96_i0_j2_k2
 BV BND1      y_s96_i1_j22_k0
 BV BND1      y_s96_i1_j22_k1
 BV BND1      y_s96_i1_j22_k2
 BV BND1      y_s96_i2_j1_k0
 BV BND1      y_s96_i2_j1_k1
 BV BND1      y_s96_i2_j1_k2
 BV BND1      y_s96_i3_j9_k0
 BV BND1      y_s96_i3_j9_k1
 BV BND1      y_s96_i3_j9_k2
 BV BND1      y_s96_i4_j34_k0
 BV BND1      y_s96_i4_j34_k1
 BV BND1      y_s96_i4_j34_k2
 BV BND1      y_s96_i5_j0_k0
 BV BND1      y_s96_i5_j0_k1
 BV BND1      y_s96_i5_j0_k2
 BV BND1      y_s96_i6_j52_k0
 BV BND1      y_s96_i6_j52_k1
 BV BND1      y_s96_i6_j52_k2
 BV BND1      y_s96_i7_j3_k0
 BV BND1      y_s96_i7_j3_k1
 BV BND1      y_s96_i7_j3_k2
 BV BND1      y_s96_i8_j10_k0
 BV BND1      y_s96_i8_j10_k1
 BV BND1      y_s96_i8_j10_k2
 BV BND1      y_s96_i9_j6_k0
 BV BND1      y_s96_i9_j6_k1
 BV BND1      y_s96_i9_j6_k2
 BV BND1      y_s96_i10_j5_k0
 BV BND1      y_s96_i10_j5_k1
 BV BND1      y_s96_i10_j5_k2
 BV BND1      y_s96_i11_j8_k0
 BV BND1      y_s96_i11_j8_k1
 BV BND1      y_s96_i11_j8_k2
 BV BND1      y_s96_i12_j11_k0
 BV BND1      y_s96_i12_j11_k1
 BV BND1      y_s96_i12_j11_k2
 BV BND1      y_s96_i13_j14_k0
 BV BND1      y_s96_i13_j14_k1
 BV BND1      y_s96_i13_j14_k2
 BV BND1      y_s96_i14_j12_k0
 BV BND1      y_s96_i14_j12_k1
 BV BND1      y_s96_i14_j12_k2
 BV BND1      y_s96_i15_j13_k0
 BV BND1      y_s96_i15_j13_k1
 BV BND1      y_s96_i15_j13_k2
 BV BND1      y_s96_i16_j17_k0
 BV BND1      y_s96_i16_j17_k1
 BV BND1      y_s96_i16_j17_k2
 BV BND1      y_s96_i17_j38_k0
 BV BND1      y_s96_i17_j38_k1
 BV BND1      y_s96_i17_j38_k2
 BV BND1      y_s96_i18_j20_k0
 BV BND1      y_s96_i18_j20_k1
 BV BND1      y_s96_i18_j20_k2
 BV BND1      y_s96_i19_j45_k0
 BV BND1      y_s96_i19_j45_k1
 BV BND1      y_s96_i19_j45_k2
 BV BND1      y_s96_i20_j16_k0
 BV BND1      y_s96_i20_j16_k1
 BV BND1      y_s96_i20_j16_k2
 BV BND1      y_s96_i21_j24_k0
 BV BND1      y_s96_i21_j24_k1
 BV BND1      y_s96_i21_j24_k2
 BV BND1      y_s96_i22_j21_k0
 BV BND1      y_s96_i22_j21_k1
 BV BND1      y_s96_i22_j21_k2
 BV BND1      y_s96_i23_j46_k0
 BV BND1      y_s96_i23_j46_k1
 BV BND1      y_s96_i23_j46_k2
 BV BND1      y_s96_i24_j23_k0
 BV BND1      y_s96_i24_j23_k1
 BV BND1      y_s96_i24_j23_k2
 BV BND1      y_s96_i25_j31_k0
 BV BND1      y_s96_i25_j31_k1
 BV BND1      y_s96_i25_j31_k2
 BV BND1      y_s96_i26_j27_k0
 BV BND1      y_s96_i26_j27_k1
 BV BND1      y_s96_i26_j27_k2
 BV BND1      y_s96_i27_j28_k0
 BV BND1      y_s96_i27_j28_k1
 BV BND1      y_s96_i27_j28_k2
 BV BND1      y_s96_i28_j25_k0
 BV BND1      y_s96_i28_j25_k1
 BV BND1      y_s96_i28_j25_k2
 BV BND1      y_s96_i29_j7_k0
 BV BND1      y_s96_i29_j7_k1
 BV BND1      y_s96_i29_j7_k2
 BV BND1      y_s96_i30_j29_k0
 BV BND1      y_s96_i30_j29_k1
 BV BND1      y_s96_i30_j29_k2
 BV BND1      y_s96_i31_j30_k0
 BV BND1      y_s96_i31_j30_k1
 BV BND1      y_s96_i31_j30_k2
 BV BND1      y_s96_i32_j40_k0
 BV BND1      y_s96_i32_j40_k1
 BV BND1      y_s96_i32_j40_k2
 BV BND1      y_s96_i33_j35_k0
 BV BND1      y_s96_i33_j35_k1
 BV BND1      y_s96_i33_j35_k2
 BV BND1      y_s96_i34_j33_k0
 BV BND1      y_s96_i34_j33_k1
 BV BND1      y_s96_i34_j33_k2
 BV BND1      y_s96_i35_j32_k0
 BV BND1      y_s96_i35_j32_k1
 BV BND1      y_s96_i35_j32_k2
 BV BND1      y_s96_i36_j49_k0
 BV BND1      y_s96_i36_j49_k1
 BV BND1      y_s96_i36_j49_k2
 BV BND1      y_s96_i37_j39_k0
 BV BND1      y_s96_i37_j39_k1
 BV BND1      y_s96_i37_j39_k2
 BV BND1      y_s96_i38_j15_k0
 BV BND1      y_s96_i38_j15_k1
 BV BND1      y_s96_i38_j15_k2
 BV BND1      y_s96_i39_j53_k0
 BV BND1      y_s96_i39_j53_k1
 BV BND1      y_s96_i39_j53_k2
 BV BND1      y_s96_i40_j37_k0
 BV BND1      y_s96_i40_j37_k1
 BV BND1      y_s96_i40_j37_k2
 BV BND1      y_s96_i41_j4_k0
 BV BND1      y_s96_i41_j4_k1
 BV BND1      y_s96_i41_j4_k2
 BV BND1      y_s96_i42_j44_k0
 BV BND1      y_s96_i42_j44_k1
 BV BND1      y_s96_i42_j44_k2
 BV BND1      y_s96_i43_j19_k0
 BV BND1      y_s96_i43_j19_k1
 BV BND1      y_s96_i43_j19_k2
 BV BND1      y_s96_i44_j50_k0
 BV BND1      y_s96_i44_j50_k1
 BV BND1      y_s96_i44_j50_k2
 BV BND1      y_s96_i45_j18_k0
 BV BND1      y_s96_i45_j18_k1
 BV BND1      y_s96_i45_j18_k2
 BV BND1      y_s96_i46_j42_k0
 BV BND1      y_s96_i46_j42_k1
 BV BND1      y_s96_i46_j42_k2
 BV BND1      y_s96_i47_j41_k0
 BV BND1      y_s96_i47_j41_k1
 BV BND1      y_s96_i47_j41_k2
 BV BND1      y_s96_i48_j51_k0
 BV BND1      y_s96_i48_j51_k1
 BV BND1      y_s96_i48_j51_k2
 BV BND1      y_s96_i49_j26_k0
 BV BND1      y_s96_i49_j26_k1
 BV BND1      y_s96_i49_j26_k2
 BV BND1      y_s96_i50_j48_k0
 BV BND1      y_s96_i50_j48_k1
 BV BND1      y_s96_i50_j48_k2
 BV BND1      y_s96_i51_j36_k0
 BV BND1      y_s96_i51_j36_k1
 BV BND1      y_s96_i51_j36_k2
 BV BND1      y_s96_i52_j47_k0
 BV BND1      y_s96_i52_j47_k1
 BV BND1      y_s96_i52_j47_k2
 BV BND1      y_s96_i53_j43_k0
 BV BND1      y_s96_i53_j43_k1
 BV BND1      y_s96_i53_j43_k2
 BV BND1      y_s64_i0_j2_k0
 BV BND1      y_s64_i0_j2_k1
 BV BND1      y_s64_i0_j2_k2
 BV BND1      y_s64_i1_j22_k0
 BV BND1      y_s64_i1_j22_k1
 BV BND1      y_s64_i1_j22_k2
 BV BND1      y_s64_i2_j1_k0
 BV BND1      y_s64_i2_j1_k1
 BV BND1      y_s64_i2_j1_k2
 BV BND1      y_s64_i3_j9_k0
 BV BND1      y_s64_i3_j9_k1
 BV BND1      y_s64_i3_j9_k2
 BV BND1      y_s64_i4_j34_k0
 BV BND1      y_s64_i4_j34_k1
 BV BND1      y_s64_i4_j34_k2
 BV BND1      y_s64_i5_j0_k0
 BV BND1      y_s64_i5_j0_k1
 BV BND1      y_s64_i5_j0_k2
 BV BND1      y_s64_i6_j52_k0
 BV BND1      y_s64_i6_j52_k1
 BV BND1      y_s64_i6_j52_k2
 BV BND1      y_s64_i7_j3_k0
 BV BND1      y_s64_i7_j3_k1
 BV BND1      y_s64_i7_j3_k2
 BV BND1      y_s64_i8_j10_k0
 BV BND1      y_s64_i8_j10_k1
 BV BND1      y_s64_i8_j10_k2
 BV BND1      y_s64_i9_j6_k0
 BV BND1      y_s64_i9_j6_k1
 BV BND1      y_s64_i9_j6_k2
 BV BND1      y_s64_i10_j5_k0
 BV BND1      y_s64_i10_j5_k1
 BV BND1      y_s64_i10_j5_k2
 BV BND1      y_s64_i11_j8_k0
 BV BND1      y_s64_i11_j8_k1
 BV BND1      y_s64_i11_j8_k2
 BV BND1      y_s64_i12_j11_k0
 BV BND1      y_s64_i12_j11_k1
 BV BND1      y_s64_i12_j11_k2
 BV BND1      y_s64_i13_j14_k0
 BV BND1      y_s64_i13_j14_k1
 BV BND1      y_s64_i13_j14_k2
 BV BND1      y_s64_i14_j12_k0
 BV BND1      y_s64_i14_j12_k1
 BV BND1      y_s64_i14_j12_k2
 BV BND1      y_s64_i15_j13_k0
 BV BND1      y_s64_i15_j13_k1
 BV BND1      y_s64_i15_j13_k2
 BV BND1      y_s64_i16_j17_k0
 BV BND1      y_s64_i16_j17_k1
 BV BND1      y_s64_i16_j17_k2
 BV BND1      y_s64_i17_j38_k0
 BV BND1      y_s64_i17_j38_k1
 BV BND1      y_s64_i17_j38_k2
 BV BND1      y_s64_i18_j20_k0
 BV BND1      y_s64_i18_j20_k1
 BV BND1      y_s64_i18_j20_k2
 BV BND1      y_s64_i19_j45_k0
 BV BND1      y_s64_i19_j45_k1
 BV BND1      y_s64_i19_j45_k2
 BV BND1      y_s64_i20_j16_k0
 BV BND1      y_s64_i20_j16_k1
 BV BND1      y_s64_i20_j16_k2
 BV BND1      y_s64_i21_j24_k0
 BV BND1      y_s64_i21_j24_k1
 BV BND1      y_s64_i21_j24_k2
 BV BND1      y_s64_i22_j21_k0
 BV BND1      y_s64_i22_j21_k1
 BV BND1      y_s64_i22_j21_k2
 BV BND1      y_s64_i23_j46_k0
 BV BND1      y_s64_i23_j46_k1
 BV BND1      y_s64_i23_j46_k2
 BV BND1      y_s64_i24_j23_k0
 BV BND1      y_s64_i24_j23_k1
 BV BND1      y_s64_i24_j23_k2
 BV BND1      y_s64_i25_j31_k0
 BV BND1      y_s64_i25_j31_k1
 BV BND1      y_s64_i25_j31_k2
 BV BND1      y_s64_i26_j27_k0
 BV BND1      y_s64_i26_j27_k1
 BV BND1      y_s64_i26_j27_k2
 BV BND1      y_s64_i27_j28_k0
 BV BND1      y_s64_i27_j28_k1
 BV BND1      y_s64_i27_j28_k2
 BV BND1      y_s64_i28_j25_k0
 BV BND1      y_s64_i28_j25_k1
 BV BND1      y_s64_i28_j25_k2
 BV BND1      y_s64_i29_j7_k0
 BV BND1      y_s64_i29_j7_k1
 BV BND1      y_s64_i29_j7_k2
 BV BND1      y_s64_i30_j29_k0
 BV BND1      y_s64_i30_j29_k1
 BV BND1      y_s64_i30_j29_k2
 BV BND1      y_s64_i31_j30_k0
 BV BND1      y_s64_i31_j30_k1
 BV BND1      y_s64_i31_j30_k2
 BV BND1      y_s64_i32_j40_k0
 BV BND1      y_s64_i32_j40_k1
 BV BND1      y_s64_i32_j40_k2
 BV BND1      y_s64_i33_j35_k0
 BV BND1      y_s64_i33_j35_k1
 BV BND1      y_s64_i33_j35_k2
 BV BND1      y_s64_i34_j33_k0
 BV BND1      y_s64_i34_j33_k1
 BV BND1      y_s64_i34_j33_k2
 BV BND1      y_s64_i35_j32_k0
 BV BND1      y_s64_i35_j32_k1
 BV BND1      y_s64_i35_j32_k2
 BV BND1      y_s64_i36_j49_k0
 BV BND1      y_s64_i36_j49_k1
 BV BND1      y_s64_i36_j49_k2
 BV BND1      y_s64_i37_j39_k0
 BV BND1      y_s64_i37_j39_k1
 BV BND1      y_s64_i37_j39_k2
 BV BND1      y_s64_i38_j15_k0
 BV BND1      y_s64_i38_j15_k1
 BV BND1      y_s64_i38_j15_k2
 BV BND1      y_s64_i39_j53_k0
 BV BND1      y_s64_i39_j53_k1
 BV BND1      y_s64_i39_j53_k2
 BV BND1      y_s64_i40_j37_k0
 BV BND1      y_s64_i40_j37_k1
 BV BND1      y_s64_i40_j37_k2
 BV BND1      y_s64_i41_j4_k0
 BV BND1      y_s64_i41_j4_k1
 BV BND1      y_s64_i41_j4_k2
 BV BND1      y_s64_i42_j44_k0
 BV BND1      y_s64_i42_j44_k1
 BV BND1      y_s64_i42_j44_k2
 BV BND1      y_s64_i43_j19_k0
 BV BND1      y_s64_i43_j19_k1
 BV BND1      y_s64_i43_j19_k2
 BV BND1      y_s64_i44_j50_k0
 BV BND1      y_s64_i44_j50_k1
 BV BND1      y_s64_i44_j50_k2
 BV BND1      y_s64_i45_j18_k0
 BV BND1      y_s64_i45_j18_k1
 BV BND1      y_s64_i45_j18_k2
 BV BND1      y_s64_i46_j42_k0
 BV BND1      y_s64_i46_j42_k1
 BV BND1      y_s64_i46_j42_k2
 BV BND1      y_s64_i47_j41_k0
 BV BND1      y_s64_i47_j41_k1
 BV BND1      y_s64_i47_j41_k2
 BV BND1      y_s64_i48_j51_k0
 BV BND1      y_s64_i48_j51_k1
 BV BND1      y_s64_i48_j51_k2
 BV BND1      y_s64_i49_j26_k0
 BV BND1      y_s64_i49_j26_k1
 BV BND1      y_s64_i49_j26_k2
 BV BND1      y_s64_i50_j48_k0
 BV BND1      y_s64_i50_j48_k1
 BV BND1      y_s64_i50_j48_k2
 BV BND1      y_s64_i51_j36_k0
 BV BND1      y_s64_i51_j36_k1
 BV BND1      y_s64_i51_j36_k2
 BV BND1      y_s64_i52_j47_k0
 BV BND1      y_s64_i52_j47_k1
 BV BND1      y_s64_i52_j47_k2
 BV BND1      y_s64_i53_j43_k0
 BV BND1      y_s64_i53_j43_k1
 BV BND1      y_s64_i53_j43_k2
 BV BND1      y_s20_i0_j2_k0
 BV BND1      y_s20_i0_j2_k1
 BV BND1      y_s20_i0_j2_k2
 BV BND1      y_s20_i1_j22_k0
 BV BND1      y_s20_i1_j22_k1
 BV BND1      y_s20_i1_j22_k2
 BV BND1      y_s20_i2_j1_k0
 BV BND1      y_s20_i2_j1_k1
 BV BND1      y_s20_i2_j1_k2
 BV BND1      y_s20_i3_j9_k0
 BV BND1      y_s20_i3_j9_k1
 BV BND1      y_s20_i3_j9_k2
 BV BND1      y_s20_i4_j34_k0
 BV BND1      y_s20_i4_j34_k1
 BV BND1      y_s20_i4_j34_k2
 BV BND1      y_s20_i5_j0_k0
 BV BND1      y_s20_i5_j0_k1
 BV BND1      y_s20_i5_j0_k2
 BV BND1      y_s20_i6_j52_k0
 BV BND1      y_s20_i6_j52_k1
 BV BND1      y_s20_i6_j52_k2
 BV BND1      y_s20_i7_j3_k0
 BV BND1      y_s20_i7_j3_k1
 BV BND1      y_s20_i7_j3_k2
 BV BND1      y_s20_i8_j10_k0
 BV BND1      y_s20_i8_j10_k1
 BV BND1      y_s20_i8_j10_k2
 BV BND1      y_s20_i9_j6_k0
 BV BND1      y_s20_i9_j6_k1
 BV BND1      y_s20_i9_j6_k2
 BV BND1      y_s20_i10_j5_k0
 BV BND1      y_s20_i10_j5_k1
 BV BND1      y_s20_i10_j5_k2
 BV BND1      y_s20_i11_j8_k0
 BV BND1      y_s20_i11_j8_k1
 BV BND1      y_s20_i11_j8_k2
 BV BND1      y_s20_i12_j11_k0
 BV BND1      y_s20_i12_j11_k1
 BV BND1      y_s20_i12_j11_k2
 BV BND1      y_s20_i13_j14_k0
 BV BND1      y_s20_i13_j14_k1
 BV BND1      y_s20_i13_j14_k2
 BV BND1      y_s20_i14_j12_k0
 BV BND1      y_s20_i14_j12_k1
 BV BND1      y_s20_i14_j12_k2
 BV BND1      y_s20_i15_j13_k0
 BV BND1      y_s20_i15_j13_k1
 BV BND1      y_s20_i15_j13_k2
 BV BND1      y_s20_i16_j17_k0
 BV BND1      y_s20_i16_j17_k1
 BV BND1      y_s20_i16_j17_k2
 BV BND1      y_s20_i17_j38_k0
 BV BND1      y_s20_i17_j38_k1
 BV BND1      y_s20_i17_j38_k2
 BV BND1      y_s20_i18_j20_k0
 BV BND1      y_s20_i18_j20_k1
 BV BND1      y_s20_i18_j20_k2
 BV BND1      y_s20_i19_j45_k0
 BV BND1      y_s20_i19_j45_k1
 BV BND1      y_s20_i19_j45_k2
 BV BND1      y_s20_i20_j16_k0
 BV BND1      y_s20_i20_j16_k1
 BV BND1      y_s20_i20_j16_k2
 BV BND1      y_s20_i21_j24_k0
 BV BND1      y_s20_i21_j24_k1
 BV BND1      y_s20_i21_j24_k2
 BV BND1      y_s20_i22_j21_k0
 BV BND1      y_s20_i22_j21_k1
 BV BND1      y_s20_i22_j21_k2
 BV BND1      y_s20_i23_j46_k0
 BV BND1      y_s20_i23_j46_k1
 BV BND1      y_s20_i23_j46_k2
 BV BND1      y_s20_i24_j23_k0
 BV BND1      y_s20_i24_j23_k1
 BV BND1      y_s20_i24_j23_k2
 BV BND1      y_s20_i25_j31_k0
 BV BND1      y_s20_i25_j31_k1
 BV BND1      y_s20_i25_j31_k2
 BV BND1      y_s20_i26_j27_k0
 BV BND1      y_s20_i26_j27_k1
 BV BND1      y_s20_i26_j27_k2
 BV BND1      y_s20_i27_j28_k0
 BV BND1      y_s20_i27_j28_k1
 BV BND1      y_s20_i27_j28_k2
 BV BND1      y_s20_i28_j25_k0
 BV BND1      y_s20_i28_j25_k1
 BV BND1      y_s20_i28_j25_k2
 BV BND1      y_s20_i29_j7_k0
 BV BND1      y_s20_i29_j7_k1
 BV BND1      y_s20_i29_j7_k2
 BV BND1      y_s20_i30_j29_k0
 BV BND1      y_s20_i30_j29_k1
 BV BND1      y_s20_i30_j29_k2
 BV BND1      y_s20_i31_j30_k0
 BV BND1      y_s20_i31_j30_k1
 BV BND1      y_s20_i31_j30_k2
 BV BND1      y_s20_i32_j40_k0
 BV BND1      y_s20_i32_j40_k1
 BV BND1      y_s20_i32_j40_k2
 BV BND1      y_s20_i33_j35_k0
 BV BND1      y_s20_i33_j35_k1
 BV BND1      y_s20_i33_j35_k2
 BV BND1      y_s20_i34_j33_k0
 BV BND1      y_s20_i34_j33_k1
 BV BND1      y_s20_i34_j33_k2
 BV BND1      y_s20_i35_j32_k0
 BV BND1      y_s20_i35_j32_k1
 BV BND1      y_s20_i35_j32_k2
 BV BND1      y_s20_i36_j49_k0
 BV BND1      y_s20_i36_j49_k1
 BV BND1      y_s20_i36_j49_k2
 BV BND1      y_s20_i37_j39_k0
 BV BND1      y_s20_i37_j39_k1
 BV BND1      y_s20_i37_j39_k2
 BV BND1      y_s20_i38_j15_k0
 BV BND1      y_s20_i38_j15_k1
 BV BND1      y_s20_i38_j15_k2
 BV BND1      y_s20_i39_j53_k0
 BV BND1      y_s20_i39_j53_k1
 BV BND1      y_s20_i39_j53_k2
 BV BND1      y_s20_i40_j37_k0
 BV BND1      y_s20_i40_j37_k1
 BV BND1      y_s20_i40_j37_k2
 BV BND1      y_s20_i41_j4_k0
 BV BND1      y_s20_i41_j4_k1
 BV BND1      y_s20_i41_j4_k2
 BV BND1      y_s20_i42_j44_k0
 BV BND1      y_s20_i42_j44_k1
 BV BND1      y_s20_i42_j44_k2
 BV BND1      y_s20_i43_j19_k0
 BV BND1      y_s20_i43_j19_k1
 BV BND1      y_s20_i43_j19_k2
 BV BND1      y_s20_i44_j50_k0
 BV BND1      y_s20_i44_j50_k1
 BV BND1      y_s20_i44_j50_k2
 BV BND1      y_s20_i45_j18_k0
 BV BND1      y_s20_i45_j18_k1
 BV BND1      y_s20_i45_j18_k2
 BV BND1      y_s20_i46_j42_k0
 BV BND1      y_s20_i46_j42_k1
 BV BND1      y_s20_i46_j42_k2
 BV BND1      y_s20_i47_j41_k0
 BV BND1      y_s20_i47_j41_k1
 BV BND1      y_s20_i47_j41_k2
 BV BND1      y_s20_i48_j51_k0
 BV BND1      y_s20_i48_j51_k1
 BV BND1      y_s20_i48_j51_k2
 BV BND1      y_s20_i49_j26_k0
 BV BND1      y_s20_i49_j26_k1
 BV BND1      y_s20_i49_j26_k2
 BV BND1      y_s20_i50_j48_k0
 BV BND1      y_s20_i50_j48_k1
 BV BND1      y_s20_i50_j48_k2
 BV BND1      y_s20_i51_j36_k0
 BV BND1      y_s20_i51_j36_k1
 BV BND1      y_s20_i51_j36_k2
 BV BND1      y_s20_i52_j47_k0
 BV BND1      y_s20_i52_j47_k1
 BV BND1      y_s20_i52_j47_k2
 BV BND1      y_s20_i53_j43_k0
 BV BND1      y_s20_i53_j43_k1
 BV BND1      y_s20_i53_j43_k2
 BV BND1      y_s51_i0_j2_k0
 BV BND1      y_s51_i0_j2_k1
 BV BND1      y_s51_i0_j2_k2
 BV BND1      y_s51_i1_j22_k0
 BV BND1      y_s51_i1_j22_k1
 BV BND1      y_s51_i1_j22_k2
 BV BND1      y_s51_i2_j1_k0
 BV BND1      y_s51_i2_j1_k1
 BV BND1      y_s51_i2_j1_k2
 BV BND1      y_s51_i3_j9_k0
 BV BND1      y_s51_i3_j9_k1
 BV BND1      y_s51_i3_j9_k2
 BV BND1      y_s51_i4_j34_k0
 BV BND1      y_s51_i4_j34_k1
 BV BND1      y_s51_i4_j34_k2
 BV BND1      y_s51_i5_j0_k0
 BV BND1      y_s51_i5_j0_k1
 BV BND1      y_s51_i5_j0_k2
 BV BND1      y_s51_i6_j52_k0
 BV BND1      y_s51_i6_j52_k1
 BV BND1      y_s51_i6_j52_k2
 BV BND1      y_s51_i7_j3_k0
 BV BND1      y_s51_i7_j3_k1
 BV BND1      y_s51_i7_j3_k2
 BV BND1      y_s51_i8_j10_k0
 BV BND1      y_s51_i8_j10_k1
 BV BND1      y_s51_i8_j10_k2
 BV BND1      y_s51_i9_j6_k0
 BV BND1      y_s51_i9_j6_k1
 BV BND1      y_s51_i9_j6_k2
 BV BND1      y_s51_i10_j5_k0
 BV BND1      y_s51_i10_j5_k1
 BV BND1      y_s51_i10_j5_k2
 BV BND1      y_s51_i11_j8_k0
 BV BND1      y_s51_i11_j8_k1
 BV BND1      y_s51_i11_j8_k2
 BV BND1      y_s51_i12_j11_k0
 BV BND1      y_s51_i12_j11_k1
 BV BND1      y_s51_i12_j11_k2
 BV BND1      y_s51_i13_j14_k0
 BV BND1      y_s51_i13_j14_k1
 BV BND1      y_s51_i13_j14_k2
 BV BND1      y_s51_i14_j12_k0
 BV BND1      y_s51_i14_j12_k1
 BV BND1      y_s51_i14_j12_k2
 BV BND1      y_s51_i15_j13_k0
 BV BND1      y_s51_i15_j13_k1
 BV BND1      y_s51_i15_j13_k2
 BV BND1      y_s51_i16_j17_k0
 BV BND1      y_s51_i16_j17_k1
 BV BND1      y_s51_i16_j17_k2
 BV BND1      y_s51_i17_j38_k0
 BV BND1      y_s51_i17_j38_k1
 BV BND1      y_s51_i17_j38_k2
 BV BND1      y_s51_i18_j20_k0
 BV BND1      y_s51_i18_j20_k1
 BV BND1      y_s51_i18_j20_k2
 BV BND1      y_s51_i19_j45_k0
 BV BND1      y_s51_i19_j45_k1
 BV BND1      y_s51_i19_j45_k2
 BV BND1      y_s51_i20_j16_k0
 BV BND1      y_s51_i20_j16_k1
 BV BND1      y_s51_i20_j16_k2
 BV BND1      y_s51_i21_j24_k0
 BV BND1      y_s51_i21_j24_k1
 BV BND1      y_s51_i21_j24_k2
 BV BND1      y_s51_i22_j21_k0
 BV BND1      y_s51_i22_j21_k1
 BV BND1      y_s51_i22_j21_k2
 BV BND1      y_s51_i23_j46_k0
 BV BND1      y_s51_i23_j46_k1
 BV BND1      y_s51_i23_j46_k2
 BV BND1      y_s51_i24_j23_k0
 BV BND1      y_s51_i24_j23_k1
 BV BND1      y_s51_i24_j23_k2
 BV BND1      y_s51_i25_j31_k0
 BV BND1      y_s51_i25_j31_k1
 BV BND1      y_s51_i25_j31_k2
 BV BND1      y_s51_i26_j27_k0
 BV BND1      y_s51_i26_j27_k1
 BV BND1      y_s51_i26_j27_k2
 BV BND1      y_s51_i27_j28_k0
 BV BND1      y_s51_i27_j28_k1
 BV BND1      y_s51_i27_j28_k2
 BV BND1      y_s51_i28_j25_k0
 BV BND1      y_s51_i28_j25_k1
 BV BND1      y_s51_i28_j25_k2
 BV BND1      y_s51_i29_j7_k0
 BV BND1      y_s51_i29_j7_k1
 BV BND1      y_s51_i29_j7_k2
 BV BND1      y_s51_i30_j29_k0
 BV BND1      y_s51_i30_j29_k1
 BV BND1      y_s51_i30_j29_k2
 BV BND1      y_s51_i31_j30_k0
 BV BND1      y_s51_i31_j30_k1
 BV BND1      y_s51_i31_j30_k2
 BV BND1      y_s51_i32_j40_k0
 BV BND1      y_s51_i32_j40_k1
 BV BND1      y_s51_i32_j40_k2
 BV BND1      y_s51_i33_j35_k0
 BV BND1      y_s51_i33_j35_k1
 BV BND1      y_s51_i33_j35_k2
 BV BND1      y_s51_i34_j33_k0
 BV BND1      y_s51_i34_j33_k1
 BV BND1      y_s51_i34_j33_k2
 BV BND1      y_s51_i35_j32_k0
 BV BND1      y_s51_i35_j32_k1
 BV BND1      y_s51_i35_j32_k2
 BV BND1      y_s51_i36_j49_k0
 BV BND1      y_s51_i36_j49_k1
 BV BND1      y_s51_i36_j49_k2
 BV BND1      y_s51_i37_j39_k0
 BV BND1      y_s51_i37_j39_k1
 BV BND1      y_s51_i37_j39_k2
 BV BND1      y_s51_i38_j15_k0
 BV BND1      y_s51_i38_j15_k1
 BV BND1      y_s51_i38_j15_k2
 BV BND1      y_s51_i39_j53_k0
 BV BND1      y_s51_i39_j53_k1
 BV BND1      y_s51_i39_j53_k2
 BV BND1      y_s51_i40_j37_k0
 BV BND1      y_s51_i40_j37_k1
 BV BND1      y_s51_i40_j37_k2
 BV BND1      y_s51_i41_j4_k0
 BV BND1      y_s51_i41_j4_k1
 BV BND1      y_s51_i41_j4_k2
 BV BND1      y_s51_i42_j44_k0
 BV BND1      y_s51_i42_j44_k1
 BV BND1      y_s51_i42_j44_k2
 BV BND1      y_s51_i43_j19_k0
 BV BND1      y_s51_i43_j19_k1
 BV BND1      y_s51_i43_j19_k2
 BV BND1      y_s51_i44_j50_k0
 BV BND1      y_s51_i44_j50_k1
 BV BND1      y_s51_i44_j50_k2
 BV BND1      y_s51_i45_j18_k0
 BV BND1      y_s51_i45_j18_k1
 BV BND1      y_s51_i45_j18_k2
 BV BND1      y_s51_i46_j42_k0
 BV BND1      y_s51_i46_j42_k1
 BV BND1      y_s51_i46_j42_k2
 BV BND1      y_s51_i47_j41_k0
 BV BND1      y_s51_i47_j41_k1
 BV BND1      y_s51_i47_j41_k2
 BV BND1      y_s51_i48_j51_k0
 BV BND1      y_s51_i48_j51_k1
 BV BND1      y_s51_i48_j51_k2
 BV BND1      y_s51_i49_j26_k0
 BV BND1      y_s51_i49_j26_k1
 BV BND1      y_s51_i49_j26_k2
 BV BND1      y_s51_i50_j48_k0
 BV BND1      y_s51_i50_j48_k1
 BV BND1      y_s51_i50_j48_k2
 BV BND1      y_s51_i51_j36_k0
 BV BND1      y_s51_i51_j36_k1
 BV BND1      y_s51_i51_j36_k2
 BV BND1      y_s51_i52_j47_k0
 BV BND1      y_s51_i52_j47_k1
 BV BND1      y_s51_i52_j47_k2
 BV BND1      y_s51_i53_j43_k0
 BV BND1      y_s51_i53_j43_k1
 BV BND1      y_s51_i53_j43_k2
 BV BND1      y_s61_i0_j2_k0
 BV BND1      y_s61_i0_j2_k1
 BV BND1      y_s61_i0_j2_k2
 BV BND1      y_s61_i1_j22_k0
 BV BND1      y_s61_i1_j22_k1
 BV BND1      y_s61_i1_j22_k2
 BV BND1      y_s61_i2_j1_k0
 BV BND1      y_s61_i2_j1_k1
 BV BND1      y_s61_i2_j1_k2
 BV BND1      y_s61_i3_j9_k0
 BV BND1      y_s61_i3_j9_k1
 BV BND1      y_s61_i3_j9_k2
 BV BND1      y_s61_i4_j34_k0
 BV BND1      y_s61_i4_j34_k1
 BV BND1      y_s61_i4_j34_k2
 BV BND1      y_s61_i5_j0_k0
 BV BND1      y_s61_i5_j0_k1
 BV BND1      y_s61_i5_j0_k2
 BV BND1      y_s61_i6_j52_k0
 BV BND1      y_s61_i6_j52_k1
 BV BND1      y_s61_i6_j52_k2
 BV BND1      y_s61_i7_j3_k0
 BV BND1      y_s61_i7_j3_k1
 BV BND1      y_s61_i7_j3_k2
 BV BND1      y_s61_i8_j10_k0
 BV BND1      y_s61_i8_j10_k1
 BV BND1      y_s61_i8_j10_k2
 BV BND1      y_s61_i9_j6_k0
 BV BND1      y_s61_i9_j6_k1
 BV BND1      y_s61_i9_j6_k2
 BV BND1      y_s61_i10_j5_k0
 BV BND1      y_s61_i10_j5_k1
 BV BND1      y_s61_i10_j5_k2
 BV BND1      y_s61_i11_j8_k0
 BV BND1      y_s61_i11_j8_k1
 BV BND1      y_s61_i11_j8_k2
 BV BND1      y_s61_i12_j11_k0
 BV BND1      y_s61_i12_j11_k1
 BV BND1      y_s61_i12_j11_k2
 BV BND1      y_s61_i13_j14_k0
 BV BND1      y_s61_i13_j14_k1
 BV BND1      y_s61_i13_j14_k2
 BV BND1      y_s61_i14_j12_k0
 BV BND1      y_s61_i14_j12_k1
 BV BND1      y_s61_i14_j12_k2
 BV BND1      y_s61_i15_j13_k0
 BV BND1      y_s61_i15_j13_k1
 BV BND1      y_s61_i15_j13_k2
 BV BND1      y_s61_i16_j17_k0
 BV BND1      y_s61_i16_j17_k1
 BV BND1      y_s61_i16_j17_k2
 BV BND1      y_s61_i17_j38_k0
 BV BND1      y_s61_i17_j38_k1
 BV BND1      y_s61_i17_j38_k2
 BV BND1      y_s61_i18_j20_k0
 BV BND1      y_s61_i18_j20_k1
 BV BND1      y_s61_i18_j20_k2
 BV BND1      y_s61_i19_j45_k0
 BV BND1      y_s61_i19_j45_k1
 BV BND1      y_s61_i19_j45_k2
 BV BND1      y_s61_i20_j16_k0
 BV BND1      y_s61_i20_j16_k1
 BV BND1      y_s61_i20_j16_k2
 BV BND1      y_s61_i21_j24_k0
 BV BND1      y_s61_i21_j24_k1
 BV BND1      y_s61_i21_j24_k2
 BV BND1      y_s61_i22_j21_k0
 BV BND1      y_s61_i22_j21_k1
 BV BND1      y_s61_i22_j21_k2
 BV BND1      y_s61_i23_j46_k0
 BV BND1      y_s61_i23_j46_k1
 BV BND1      y_s61_i23_j46_k2
 BV BND1      y_s61_i24_j23_k0
 BV BND1      y_s61_i24_j23_k1
 BV BND1      y_s61_i24_j23_k2
 BV BND1      y_s61_i25_j31_k0
 BV BND1      y_s61_i25_j31_k1
 BV BND1      y_s61_i25_j31_k2
 BV BND1      y_s61_i26_j27_k0
 BV BND1      y_s61_i26_j27_k1
 BV BND1      y_s61_i26_j27_k2
 BV BND1      y_s61_i27_j28_k0
 BV BND1      y_s61_i27_j28_k1
 BV BND1      y_s61_i27_j28_k2
 BV BND1      y_s61_i28_j25_k0
 BV BND1      y_s61_i28_j25_k1
 BV BND1      y_s61_i28_j25_k2
 BV BND1      y_s61_i29_j7_k0
 BV BND1      y_s61_i29_j7_k1
 BV BND1      y_s61_i29_j7_k2
 BV BND1      y_s61_i30_j29_k0
 BV BND1      y_s61_i30_j29_k1
 BV BND1      y_s61_i30_j29_k2
 BV BND1      y_s61_i31_j30_k0
 BV BND1      y_s61_i31_j30_k1
 BV BND1      y_s61_i31_j30_k2
 BV BND1      y_s61_i32_j40_k0
 BV BND1      y_s61_i32_j40_k1
 BV BND1      y_s61_i32_j40_k2
 BV BND1      y_s61_i33_j35_k0
 BV BND1      y_s61_i33_j35_k1
 BV BND1      y_s61_i33_j35_k2
 BV BND1      y_s61_i34_j33_k0
 BV BND1      y_s61_i34_j33_k1
 BV BND1      y_s61_i34_j33_k2
 BV BND1      y_s61_i35_j32_k0
 BV BND1      y_s61_i35_j32_k1
 BV BND1      y_s61_i35_j32_k2
 BV BND1      y_s61_i36_j49_k0
 BV BND1      y_s61_i36_j49_k1
 BV BND1      y_s61_i36_j49_k2
 BV BND1      y_s61_i37_j39_k0
 BV BND1      y_s61_i37_j39_k1
 BV BND1      y_s61_i37_j39_k2
 BV BND1      y_s61_i38_j15_k0
 BV BND1      y_s61_i38_j15_k1
 BV BND1      y_s61_i38_j15_k2
 BV BND1      y_s61_i39_j53_k0
 BV BND1      y_s61_i39_j53_k1
 BV BND1      y_s61_i39_j53_k2
 BV BND1      y_s61_i40_j37_k0
 BV BND1      y_s61_i40_j37_k1
 BV BND1      y_s61_i40_j37_k2
 BV BND1      y_s61_i41_j4_k0
 BV BND1      y_s61_i41_j4_k1
 BV BND1      y_s61_i41_j4_k2
 BV BND1      y_s61_i42_j44_k0
 BV BND1      y_s61_i42_j44_k1
 BV BND1      y_s61_i42_j44_k2
 BV BND1      y_s61_i43_j19_k0
 BV BND1      y_s61_i43_j19_k1
 BV BND1      y_s61_i43_j19_k2
 BV BND1      y_s61_i44_j50_k0
 BV BND1      y_s61_i44_j50_k1
 BV BND1      y_s61_i44_j50_k2
 BV BND1      y_s61_i45_j18_k0
 BV BND1      y_s61_i45_j18_k1
 BV BND1      y_s61_i45_j18_k2
 BV BND1      y_s61_i46_j42_k0
 BV BND1      y_s61_i46_j42_k1
 BV BND1      y_s61_i46_j42_k2
 BV BND1      y_s61_i47_j41_k0
 BV BND1      y_s61_i47_j41_k1
 BV BND1      y_s61_i47_j41_k2
 BV BND1      y_s61_i48_j51_k0
 BV BND1      y_s61_i48_j51_k1
 BV BND1      y_s61_i48_j51_k2
 BV BND1      y_s61_i49_j26_k0
 BV BND1      y_s61_i49_j26_k1
 BV BND1      y_s61_i49_j26_k2
 BV BND1      y_s61_i50_j48_k0
 BV BND1      y_s61_i50_j48_k1
 BV BND1      y_s61_i50_j48_k2
 BV BND1      y_s61_i51_j36_k0
 BV BND1      y_s61_i51_j36_k1
 BV BND1      y_s61_i51_j36_k2
 BV BND1      y_s61_i52_j47_k0
 BV BND1      y_s61_i52_j47_k1
 BV BND1      y_s61_i52_j47_k2
 BV BND1      y_s61_i53_j43_k0
 BV BND1      y_s61_i53_j43_k1
 BV BND1      y_s61_i53_j43_k2
 BV BND1      y_s81_i0_j2_k0
 BV BND1      y_s81_i0_j2_k1
 BV BND1      y_s81_i0_j2_k2
 BV BND1      y_s81_i1_j22_k0
 BV BND1      y_s81_i1_j22_k1
 BV BND1      y_s81_i1_j22_k2
 BV BND1      y_s81_i2_j1_k0
 BV BND1      y_s81_i2_j1_k1
 BV BND1      y_s81_i2_j1_k2
 BV BND1      y_s81_i3_j9_k0
 BV BND1      y_s81_i3_j9_k1
 BV BND1      y_s81_i3_j9_k2
 BV BND1      y_s81_i4_j34_k0
 BV BND1      y_s81_i4_j34_k1
 BV BND1      y_s81_i4_j34_k2
 BV BND1      y_s81_i5_j0_k0
 BV BND1      y_s81_i5_j0_k1
 BV BND1      y_s81_i5_j0_k2
 BV BND1      y_s81_i6_j52_k0
 BV BND1      y_s81_i6_j52_k1
 BV BND1      y_s81_i6_j52_k2
 BV BND1      y_s81_i7_j3_k0
 BV BND1      y_s81_i7_j3_k1
 BV BND1      y_s81_i7_j3_k2
 BV BND1      y_s81_i8_j10_k0
 BV BND1      y_s81_i8_j10_k1
 BV BND1      y_s81_i8_j10_k2
 BV BND1      y_s81_i9_j6_k0
 BV BND1      y_s81_i9_j6_k1
 BV BND1      y_s81_i9_j6_k2
 BV BND1      y_s81_i10_j5_k0
 BV BND1      y_s81_i10_j5_k1
 BV BND1      y_s81_i10_j5_k2
 BV BND1      y_s81_i11_j8_k0
 BV BND1      y_s81_i11_j8_k1
 BV BND1      y_s81_i11_j8_k2
 BV BND1      y_s81_i12_j11_k0
 BV BND1      y_s81_i12_j11_k1
 BV BND1      y_s81_i12_j11_k2
 BV BND1      y_s81_i13_j14_k0
 BV BND1      y_s81_i13_j14_k1
 BV BND1      y_s81_i13_j14_k2
 BV BND1      y_s81_i14_j12_k0
 BV BND1      y_s81_i14_j12_k1
 BV BND1      y_s81_i14_j12_k2
 BV BND1      y_s81_i15_j13_k0
 BV BND1      y_s81_i15_j13_k1
 BV BND1      y_s81_i15_j13_k2
 BV BND1      y_s81_i16_j17_k0
 BV BND1      y_s81_i16_j17_k1
 BV BND1      y_s81_i16_j17_k2
 BV BND1      y_s81_i17_j38_k0
 BV BND1      y_s81_i17_j38_k1
 BV BND1      y_s81_i17_j38_k2
 BV BND1      y_s81_i18_j20_k0
 BV BND1      y_s81_i18_j20_k1
 BV BND1      y_s81_i18_j20_k2
 BV BND1      y_s81_i19_j45_k0
 BV BND1      y_s81_i19_j45_k1
 BV BND1      y_s81_i19_j45_k2
 BV BND1      y_s81_i20_j16_k0
 BV BND1      y_s81_i20_j16_k1
 BV BND1      y_s81_i20_j16_k2
 BV BND1      y_s81_i21_j24_k0
 BV BND1      y_s81_i21_j24_k1
 BV BND1      y_s81_i21_j24_k2
 BV BND1      y_s81_i22_j21_k0
 BV BND1      y_s81_i22_j21_k1
 BV BND1      y_s81_i22_j21_k2
 BV BND1      y_s81_i23_j46_k0
 BV BND1      y_s81_i23_j46_k1
 BV BND1      y_s81_i23_j46_k2
 BV BND1      y_s81_i24_j23_k0
 BV BND1      y_s81_i24_j23_k1
 BV BND1      y_s81_i24_j23_k2
 BV BND1      y_s81_i25_j31_k0
 BV BND1      y_s81_i25_j31_k1
 BV BND1      y_s81_i25_j31_k2
 BV BND1      y_s81_i26_j27_k0
 BV BND1      y_s81_i26_j27_k1
 BV BND1      y_s81_i26_j27_k2
 BV BND1      y_s81_i27_j28_k0
 BV BND1      y_s81_i27_j28_k1
 BV BND1      y_s81_i27_j28_k2
 BV BND1      y_s81_i28_j25_k0
 BV BND1      y_s81_i28_j25_k1
 BV BND1      y_s81_i28_j25_k2
 BV BND1      y_s81_i29_j7_k0
 BV BND1      y_s81_i29_j7_k1
 BV BND1      y_s81_i29_j7_k2
 BV BND1      y_s81_i30_j29_k0
 BV BND1      y_s81_i30_j29_k1
 BV BND1      y_s81_i30_j29_k2
 BV BND1      y_s81_i31_j30_k0
 BV BND1      y_s81_i31_j30_k1
 BV BND1      y_s81_i31_j30_k2
 BV BND1      y_s81_i32_j40_k0
 BV BND1      y_s81_i32_j40_k1
 BV BND1      y_s81_i32_j40_k2
 BV BND1      y_s81_i33_j35_k0
 BV BND1      y_s81_i33_j35_k1
 BV BND1      y_s81_i33_j35_k2
 BV BND1      y_s81_i34_j33_k0
 BV BND1      y_s81_i34_j33_k1
 BV BND1      y_s81_i34_j33_k2
 BV BND1      y_s81_i35_j32_k0
 BV BND1      y_s81_i35_j32_k1
 BV BND1      y_s81_i35_j32_k2
 BV BND1      y_s81_i36_j49_k0
 BV BND1      y_s81_i36_j49_k1
 BV BND1      y_s81_i36_j49_k2
 BV BND1      y_s81_i37_j39_k0
 BV BND1      y_s81_i37_j39_k1
 BV BND1      y_s81_i37_j39_k2
 BV BND1      y_s81_i38_j15_k0
 BV BND1      y_s81_i38_j15_k1
 BV BND1      y_s81_i38_j15_k2
 BV BND1      y_s81_i39_j53_k0
 BV BND1      y_s81_i39_j53_k1
 BV BND1      y_s81_i39_j53_k2
 BV BND1      y_s81_i40_j37_k0
 BV BND1      y_s81_i40_j37_k1
 BV BND1      y_s81_i40_j37_k2
 BV BND1      y_s81_i41_j4_k0
 BV BND1      y_s81_i41_j4_k1
 BV BND1      y_s81_i41_j4_k2
 BV BND1      y_s81_i42_j44_k0
 BV BND1      y_s81_i42_j44_k1
 BV BND1      y_s81_i42_j44_k2
 BV BND1      y_s81_i43_j19_k0
 BV BND1      y_s81_i43_j19_k1
 BV BND1      y_s81_i43_j19_k2
 BV BND1      y_s81_i44_j50_k0
 BV BND1      y_s81_i44_j50_k1
 BV BND1      y_s81_i44_j50_k2
 BV BND1      y_s81_i45_j18_k0
 BV BND1      y_s81_i45_j18_k1
 BV BND1      y_s81_i45_j18_k2
 BV BND1      y_s81_i46_j42_k0
 BV BND1      y_s81_i46_j42_k1
 BV BND1      y_s81_i46_j42_k2
 BV BND1      y_s81_i47_j41_k0
 BV BND1      y_s81_i47_j41_k1
 BV BND1      y_s81_i47_j41_k2
 BV BND1      y_s81_i48_j51_k0
 BV BND1      y_s81_i48_j51_k1
 BV BND1      y_s81_i48_j51_k2
 BV BND1      y_s81_i49_j26_k0
 BV BND1      y_s81_i49_j26_k1
 BV BND1      y_s81_i49_j26_k2
 BV BND1      y_s81_i50_j48_k0
 BV BND1      y_s81_i50_j48_k1
 BV BND1      y_s81_i50_j48_k2
 BV BND1      y_s81_i51_j36_k0
 BV BND1      y_s81_i51_j36_k1
 BV BND1      y_s81_i51_j36_k2
 BV BND1      y_s81_i52_j47_k0
 BV BND1      y_s81_i52_j47_k1
 BV BND1      y_s81_i52_j47_k2
 BV BND1      y_s81_i53_j43_k0
 BV BND1      y_s81_i53_j43_k1
 BV BND1      y_s81_i53_j43_k2
 BV BND1      y_s9_i0_j2_k0
 BV BND1      y_s9_i0_j2_k1
 BV BND1      y_s9_i0_j2_k2
 BV BND1      y_s9_i1_j22_k0
 BV BND1      y_s9_i1_j22_k1
 BV BND1      y_s9_i1_j22_k2
 BV BND1      y_s9_i2_j1_k0
 BV BND1      y_s9_i2_j1_k1
 BV BND1      y_s9_i2_j1_k2
 BV BND1      y_s9_i3_j9_k0
 BV BND1      y_s9_i3_j9_k1
 BV BND1      y_s9_i3_j9_k2
 BV BND1      y_s9_i4_j34_k0
 BV BND1      y_s9_i4_j34_k1
 BV BND1      y_s9_i4_j34_k2
 BV BND1      y_s9_i5_j0_k0
 BV BND1      y_s9_i5_j0_k1
 BV BND1      y_s9_i5_j0_k2
 BV BND1      y_s9_i6_j52_k0
 BV BND1      y_s9_i6_j52_k1
 BV BND1      y_s9_i6_j52_k2
 BV BND1      y_s9_i7_j3_k0
 BV BND1      y_s9_i7_j3_k1
 BV BND1      y_s9_i7_j3_k2
 BV BND1      y_s9_i8_j10_k0
 BV BND1      y_s9_i8_j10_k1
 BV BND1      y_s9_i8_j10_k2
 BV BND1      y_s9_i9_j6_k0
 BV BND1      y_s9_i9_j6_k1
 BV BND1      y_s9_i9_j6_k2
 BV BND1      y_s9_i10_j5_k0
 BV BND1      y_s9_i10_j5_k1
 BV BND1      y_s9_i10_j5_k2
 BV BND1      y_s9_i11_j8_k0
 BV BND1      y_s9_i11_j8_k1
 BV BND1      y_s9_i11_j8_k2
 BV BND1      y_s9_i12_j11_k0
 BV BND1      y_s9_i12_j11_k1
 BV BND1      y_s9_i12_j11_k2
 BV BND1      y_s9_i13_j14_k0
 BV BND1      y_s9_i13_j14_k1
 BV BND1      y_s9_i13_j14_k2
 BV BND1      y_s9_i14_j12_k0
 BV BND1      y_s9_i14_j12_k1
 BV BND1      y_s9_i14_j12_k2
 BV BND1      y_s9_i15_j13_k0
 BV BND1      y_s9_i15_j13_k1
 BV BND1      y_s9_i15_j13_k2
 BV BND1      y_s9_i16_j17_k0
 BV BND1      y_s9_i16_j17_k1
 BV BND1      y_s9_i16_j17_k2
 BV BND1      y_s9_i17_j38_k0
 BV BND1      y_s9_i17_j38_k1
 BV BND1      y_s9_i17_j38_k2
 BV BND1      y_s9_i18_j20_k0
 BV BND1      y_s9_i18_j20_k1
 BV BND1      y_s9_i18_j20_k2
 BV BND1      y_s9_i19_j45_k0
 BV BND1      y_s9_i19_j45_k1
 BV BND1      y_s9_i19_j45_k2
 BV BND1      y_s9_i20_j16_k0
 BV BND1      y_s9_i20_j16_k1
 BV BND1      y_s9_i20_j16_k2
 BV BND1      y_s9_i21_j24_k0
 BV BND1      y_s9_i21_j24_k1
 BV BND1      y_s9_i21_j24_k2
 BV BND1      y_s9_i22_j21_k0
 BV BND1      y_s9_i22_j21_k1
 BV BND1      y_s9_i22_j21_k2
 BV BND1      y_s9_i23_j46_k0
 BV BND1      y_s9_i23_j46_k1
 BV BND1      y_s9_i23_j46_k2
 BV BND1      y_s9_i24_j23_k0
 BV BND1      y_s9_i24_j23_k1
 BV BND1      y_s9_i24_j23_k2
 BV BND1      y_s9_i25_j31_k0
 BV BND1      y_s9_i25_j31_k1
 BV BND1      y_s9_i25_j31_k2
 BV BND1      y_s9_i26_j27_k0
 BV BND1      y_s9_i26_j27_k1
 BV BND1      y_s9_i26_j27_k2
 BV BND1      y_s9_i27_j28_k0
 BV BND1      y_s9_i27_j28_k1
 BV BND1      y_s9_i27_j28_k2
 BV BND1      y_s9_i28_j25_k0
 BV BND1      y_s9_i28_j25_k1
 BV BND1      y_s9_i28_j25_k2
 BV BND1      y_s9_i29_j7_k0
 BV BND1      y_s9_i29_j7_k1
 BV BND1      y_s9_i29_j7_k2
 BV BND1      y_s9_i30_j29_k0
 BV BND1      y_s9_i30_j29_k1
 BV BND1      y_s9_i30_j29_k2
 BV BND1      y_s9_i31_j30_k0
 BV BND1      y_s9_i31_j30_k1
 BV BND1      y_s9_i31_j30_k2
 BV BND1      y_s9_i32_j40_k0
 BV BND1      y_s9_i32_j40_k1
 BV BND1      y_s9_i32_j40_k2
 BV BND1      y_s9_i33_j35_k0
 BV BND1      y_s9_i33_j35_k1
 BV BND1      y_s9_i33_j35_k2
 BV BND1      y_s9_i34_j33_k0
 BV BND1      y_s9_i34_j33_k1
 BV BND1      y_s9_i34_j33_k2
 BV BND1      y_s9_i35_j32_k0
 BV BND1      y_s9_i35_j32_k1
 BV BND1      y_s9_i35_j32_k2
 BV BND1      y_s9_i36_j49_k0
 BV BND1      y_s9_i36_j49_k1
 BV BND1      y_s9_i36_j49_k2
 BV BND1      y_s9_i37_j39_k0
 BV BND1      y_s9_i37_j39_k1
 BV BND1      y_s9_i37_j39_k2
 BV BND1      y_s9_i38_j15_k0
 BV BND1      y_s9_i38_j15_k1
 BV BND1      y_s9_i38_j15_k2
 BV BND1      y_s9_i39_j53_k0
 BV BND1      y_s9_i39_j53_k1
 BV BND1      y_s9_i39_j53_k2
 BV BND1      y_s9_i40_j37_k0
 BV BND1      y_s9_i40_j37_k1
 BV BND1      y_s9_i40_j37_k2
 BV BND1      y_s9_i41_j4_k0
 BV BND1      y_s9_i41_j4_k1
 BV BND1      y_s9_i41_j4_k2
 BV BND1      y_s9_i42_j44_k0
 BV BND1      y_s9_i42_j44_k1
 BV BND1      y_s9_i42_j44_k2
 BV BND1      y_s9_i43_j19_k0
 BV BND1      y_s9_i43_j19_k1
 BV BND1      y_s9_i43_j19_k2
 BV BND1      y_s9_i44_j50_k0
 BV BND1      y_s9_i44_j50_k1
 BV BND1      y_s9_i44_j50_k2
 BV BND1      y_s9_i45_j18_k0
 BV BND1      y_s9_i45_j18_k1
 BV BND1      y_s9_i45_j18_k2
 BV BND1      y_s9_i46_j42_k0
 BV BND1      y_s9_i46_j42_k1
 BV BND1      y_s9_i46_j42_k2
 BV BND1      y_s9_i47_j41_k0
 BV BND1      y_s9_i47_j41_k1
 BV BND1      y_s9_i47_j41_k2
 BV BND1      y_s9_i48_j51_k0
 BV BND1      y_s9_i48_j51_k1
 BV BND1      y_s9_i48_j51_k2
 BV BND1      y_s9_i49_j26_k0
 BV BND1      y_s9_i49_j26_k1
 BV BND1      y_s9_i49_j26_k2
 BV BND1      y_s9_i50_j48_k0
 BV BND1      y_s9_i50_j48_k1
 BV BND1      y_s9_i50_j48_k2
 BV BND1      y_s9_i51_j36_k0
 BV BND1      y_s9_i51_j36_k1
 BV BND1      y_s9_i51_j36_k2
 BV BND1      y_s9_i52_j47_k0
 BV BND1      y_s9_i52_j47_k1
 BV BND1      y_s9_i52_j47_k2
 BV BND1      y_s9_i53_j43_k0
 BV BND1      y_s9_i53_j43_k1
 BV BND1      y_s9_i53_j43_k2
 BV BND1      y_s63_i0_j2_k0
 BV BND1      y_s63_i0_j2_k1
 BV BND1      y_s63_i0_j2_k2
 BV BND1      y_s63_i1_j22_k0
 BV BND1      y_s63_i1_j22_k1
 BV BND1      y_s63_i1_j22_k2
 BV BND1      y_s63_i2_j1_k0
 BV BND1      y_s63_i2_j1_k1
 BV BND1      y_s63_i2_j1_k2
 BV BND1      y_s63_i3_j9_k0
 BV BND1      y_s63_i3_j9_k1
 BV BND1      y_s63_i3_j9_k2
 BV BND1      y_s63_i4_j34_k0
 BV BND1      y_s63_i4_j34_k1
 BV BND1      y_s63_i4_j34_k2
 BV BND1      y_s63_i5_j0_k0
 BV BND1      y_s63_i5_j0_k1
 BV BND1      y_s63_i5_j0_k2
 BV BND1      y_s63_i6_j52_k0
 BV BND1      y_s63_i6_j52_k1
 BV BND1      y_s63_i6_j52_k2
 BV BND1      y_s63_i7_j3_k0
 BV BND1      y_s63_i7_j3_k1
 BV BND1      y_s63_i7_j3_k2
 BV BND1      y_s63_i8_j10_k0
 BV BND1      y_s63_i8_j10_k1
 BV BND1      y_s63_i8_j10_k2
 BV BND1      y_s63_i9_j6_k0
 BV BND1      y_s63_i9_j6_k1
 BV BND1      y_s63_i9_j6_k2
 BV BND1      y_s63_i10_j5_k0
 BV BND1      y_s63_i10_j5_k1
 BV BND1      y_s63_i10_j5_k2
 BV BND1      y_s63_i11_j8_k0
 BV BND1      y_s63_i11_j8_k1
 BV BND1      y_s63_i11_j8_k2
 BV BND1      y_s63_i12_j11_k0
 BV BND1      y_s63_i12_j11_k1
 BV BND1      y_s63_i12_j11_k2
 BV BND1      y_s63_i13_j14_k0
 BV BND1      y_s63_i13_j14_k1
 BV BND1      y_s63_i13_j14_k2
 BV BND1      y_s63_i14_j12_k0
 BV BND1      y_s63_i14_j12_k1
 BV BND1      y_s63_i14_j12_k2
 BV BND1      y_s63_i15_j13_k0
 BV BND1      y_s63_i15_j13_k1
 BV BND1      y_s63_i15_j13_k2
 BV BND1      y_s63_i16_j17_k0
 BV BND1      y_s63_i16_j17_k1
 BV BND1      y_s63_i16_j17_k2
 BV BND1      y_s63_i17_j38_k0
 BV BND1      y_s63_i17_j38_k1
 BV BND1      y_s63_i17_j38_k2
 BV BND1      y_s63_i18_j20_k0
 BV BND1      y_s63_i18_j20_k1
 BV BND1      y_s63_i18_j20_k2
 BV BND1      y_s63_i19_j45_k0
 BV BND1      y_s63_i19_j45_k1
 BV BND1      y_s63_i19_j45_k2
 BV BND1      y_s63_i20_j16_k0
 BV BND1      y_s63_i20_j16_k1
 BV BND1      y_s63_i20_j16_k2
 BV BND1      y_s63_i21_j24_k0
 BV BND1      y_s63_i21_j24_k1
 BV BND1      y_s63_i21_j24_k2
 BV BND1      y_s63_i22_j21_k0
 BV BND1      y_s63_i22_j21_k1
 BV BND1      y_s63_i22_j21_k2
 BV BND1      y_s63_i23_j46_k0
 BV BND1      y_s63_i23_j46_k1
 BV BND1      y_s63_i23_j46_k2
 BV BND1      y_s63_i24_j23_k0
 BV BND1      y_s63_i24_j23_k1
 BV BND1      y_s63_i24_j23_k2
 BV BND1      y_s63_i25_j31_k0
 BV BND1      y_s63_i25_j31_k1
 BV BND1      y_s63_i25_j31_k2
 BV BND1      y_s63_i26_j27_k0
 BV BND1      y_s63_i26_j27_k1
 BV BND1      y_s63_i26_j27_k2
 BV BND1      y_s63_i27_j28_k0
 BV BND1      y_s63_i27_j28_k1
 BV BND1      y_s63_i27_j28_k2
 BV BND1      y_s63_i28_j25_k0
 BV BND1      y_s63_i28_j25_k1
 BV BND1      y_s63_i28_j25_k2
 BV BND1      y_s63_i29_j7_k0
 BV BND1      y_s63_i29_j7_k1
 BV BND1      y_s63_i29_j7_k2
 BV BND1      y_s63_i30_j29_k0
 BV BND1      y_s63_i30_j29_k1
 BV BND1      y_s63_i30_j29_k2
 BV BND1      y_s63_i31_j30_k0
 BV BND1      y_s63_i31_j30_k1
 BV BND1      y_s63_i31_j30_k2
 BV BND1      y_s63_i32_j40_k0
 BV BND1      y_s63_i32_j40_k1
 BV BND1      y_s63_i32_j40_k2
 BV BND1      y_s63_i33_j35_k0
 BV BND1      y_s63_i33_j35_k1
 BV BND1      y_s63_i33_j35_k2
 BV BND1      y_s63_i34_j33_k0
 BV BND1      y_s63_i34_j33_k1
 BV BND1      y_s63_i34_j33_k2
 BV BND1      y_s63_i35_j32_k0
 BV BND1      y_s63_i35_j32_k1
 BV BND1      y_s63_i35_j32_k2
 BV BND1      y_s63_i36_j49_k0
 BV BND1      y_s63_i36_j49_k1
 BV BND1      y_s63_i36_j49_k2
 BV BND1      y_s63_i37_j39_k0
 BV BND1      y_s63_i37_j39_k1
 BV BND1      y_s63_i37_j39_k2
 BV BND1      y_s63_i38_j15_k0
 BV BND1      y_s63_i38_j15_k1
 BV BND1      y_s63_i38_j15_k2
 BV BND1      y_s63_i39_j53_k0
 BV BND1      y_s63_i39_j53_k1
 BV BND1      y_s63_i39_j53_k2
 BV BND1      y_s63_i40_j37_k0
 BV BND1      y_s63_i40_j37_k1
 BV BND1      y_s63_i40_j37_k2
 BV BND1      y_s63_i41_j4_k0
 BV BND1      y_s63_i41_j4_k1
 BV BND1      y_s63_i41_j4_k2
 BV BND1      y_s63_i42_j44_k0
 BV BND1      y_s63_i42_j44_k1
 BV BND1      y_s63_i42_j44_k2
 BV BND1      y_s63_i43_j19_k0
 BV BND1      y_s63_i43_j19_k1
 BV BND1      y_s63_i43_j19_k2
 BV BND1      y_s63_i44_j50_k0
 BV BND1      y_s63_i44_j50_k1
 BV BND1      y_s63_i44_j50_k2
 BV BND1      y_s63_i45_j18_k0
 BV BND1      y_s63_i45_j18_k1
 BV BND1      y_s63_i45_j18_k2
 BV BND1      y_s63_i46_j42_k0
 BV BND1      y_s63_i46_j42_k1
 BV BND1      y_s63_i46_j42_k2
 BV BND1      y_s63_i47_j41_k0
 BV BND1      y_s63_i47_j41_k1
 BV BND1      y_s63_i47_j41_k2
 BV BND1      y_s63_i48_j51_k0
 BV BND1      y_s63_i48_j51_k1
 BV BND1      y_s63_i48_j51_k2
 BV BND1      y_s63_i49_j26_k0
 BV BND1      y_s63_i49_j26_k1
 BV BND1      y_s63_i49_j26_k2
 BV BND1      y_s63_i50_j48_k0
 BV BND1      y_s63_i50_j48_k1
 BV BND1      y_s63_i50_j48_k2
 BV BND1      y_s63_i51_j36_k0
 BV BND1      y_s63_i51_j36_k1
 BV BND1      y_s63_i51_j36_k2
 BV BND1      y_s63_i52_j47_k0
 BV BND1      y_s63_i52_j47_k1
 BV BND1      y_s63_i52_j47_k2
 BV BND1      y_s63_i53_j43_k0
 BV BND1      y_s63_i53_j43_k1
 BV BND1      y_s63_i53_j43_k2
 BV BND1      y_s43_i0_j2_k0
 BV BND1      y_s43_i0_j2_k1
 BV BND1      y_s43_i0_j2_k2
 BV BND1      y_s43_i1_j22_k0
 BV BND1      y_s43_i1_j22_k1
 BV BND1      y_s43_i1_j22_k2
 BV BND1      y_s43_i2_j1_k0
 BV BND1      y_s43_i2_j1_k1
 BV BND1      y_s43_i2_j1_k2
 BV BND1      y_s43_i3_j9_k0
 BV BND1      y_s43_i3_j9_k1
 BV BND1      y_s43_i3_j9_k2
 BV BND1      y_s43_i4_j34_k0
 BV BND1      y_s43_i4_j34_k1
 BV BND1      y_s43_i4_j34_k2
 BV BND1      y_s43_i5_j0_k0
 BV BND1      y_s43_i5_j0_k1
 BV BND1      y_s43_i5_j0_k2
 BV BND1      y_s43_i6_j52_k0
 BV BND1      y_s43_i6_j52_k1
 BV BND1      y_s43_i6_j52_k2
 BV BND1      y_s43_i7_j3_k0
 BV BND1      y_s43_i7_j3_k1
 BV BND1      y_s43_i7_j3_k2
 BV BND1      y_s43_i8_j10_k0
 BV BND1      y_s43_i8_j10_k1
 BV BND1      y_s43_i8_j10_k2
 BV BND1      y_s43_i9_j6_k0
 BV BND1      y_s43_i9_j6_k1
 BV BND1      y_s43_i9_j6_k2
 BV BND1      y_s43_i10_j5_k0
 BV BND1      y_s43_i10_j5_k1
 BV BND1      y_s43_i10_j5_k2
 BV BND1      y_s43_i11_j8_k0
 BV BND1      y_s43_i11_j8_k1
 BV BND1      y_s43_i11_j8_k2
 BV BND1      y_s43_i12_j11_k0
 BV BND1      y_s43_i12_j11_k1
 BV BND1      y_s43_i12_j11_k2
 BV BND1      y_s43_i13_j14_k0
 BV BND1      y_s43_i13_j14_k1
 BV BND1      y_s43_i13_j14_k2
 BV BND1      y_s43_i14_j12_k0
 BV BND1      y_s43_i14_j12_k1
 BV BND1      y_s43_i14_j12_k2
 BV BND1      y_s43_i15_j13_k0
 BV BND1      y_s43_i15_j13_k1
 BV BND1      y_s43_i15_j13_k2
 BV BND1      y_s43_i16_j17_k0
 BV BND1      y_s43_i16_j17_k1
 BV BND1      y_s43_i16_j17_k2
 BV BND1      y_s43_i17_j38_k0
 BV BND1      y_s43_i17_j38_k1
 BV BND1      y_s43_i17_j38_k2
 BV BND1      y_s43_i18_j20_k0
 BV BND1      y_s43_i18_j20_k1
 BV BND1      y_s43_i18_j20_k2
 BV BND1      y_s43_i19_j45_k0
 BV BND1      y_s43_i19_j45_k1
 BV BND1      y_s43_i19_j45_k2
 BV BND1      y_s43_i20_j16_k0
 BV BND1      y_s43_i20_j16_k1
 BV BND1      y_s43_i20_j16_k2
 BV BND1      y_s43_i21_j24_k0
 BV BND1      y_s43_i21_j24_k1
 BV BND1      y_s43_i21_j24_k2
 BV BND1      y_s43_i22_j21_k0
 BV BND1      y_s43_i22_j21_k1
 BV BND1      y_s43_i22_j21_k2
 BV BND1      y_s43_i23_j46_k0
 BV BND1      y_s43_i23_j46_k1
 BV BND1      y_s43_i23_j46_k2
 BV BND1      y_s43_i24_j23_k0
 BV BND1      y_s43_i24_j23_k1
 BV BND1      y_s43_i24_j23_k2
 BV BND1      y_s43_i25_j31_k0
 BV BND1      y_s43_i25_j31_k1
 BV BND1      y_s43_i25_j31_k2
 BV BND1      y_s43_i26_j27_k0
 BV BND1      y_s43_i26_j27_k1
 BV BND1      y_s43_i26_j27_k2
 BV BND1      y_s43_i27_j28_k0
 BV BND1      y_s43_i27_j28_k1
 BV BND1      y_s43_i27_j28_k2
 BV BND1      y_s43_i28_j25_k0
 BV BND1      y_s43_i28_j25_k1
 BV BND1      y_s43_i28_j25_k2
 BV BND1      y_s43_i29_j7_k0
 BV BND1      y_s43_i29_j7_k1
 BV BND1      y_s43_i29_j7_k2
 BV BND1      y_s43_i30_j29_k0
 BV BND1      y_s43_i30_j29_k1
 BV BND1      y_s43_i30_j29_k2
 BV BND1      y_s43_i31_j30_k0
 BV BND1      y_s43_i31_j30_k1
 BV BND1      y_s43_i31_j30_k2
 BV BND1      y_s43_i32_j40_k0
 BV BND1      y_s43_i32_j40_k1
 BV BND1      y_s43_i32_j40_k2
 BV BND1      y_s43_i33_j35_k0
 BV BND1      y_s43_i33_j35_k1
 BV BND1      y_s43_i33_j35_k2
 BV BND1      y_s43_i34_j33_k0
 BV BND1      y_s43_i34_j33_k1
 BV BND1      y_s43_i34_j33_k2
 BV BND1      y_s43_i35_j32_k0
 BV BND1      y_s43_i35_j32_k1
 BV BND1      y_s43_i35_j32_k2
 BV BND1      y_s43_i36_j49_k0
 BV BND1      y_s43_i36_j49_k1
 BV BND1      y_s43_i36_j49_k2
 BV BND1      y_s43_i37_j39_k0
 BV BND1      y_s43_i37_j39_k1
 BV BND1      y_s43_i37_j39_k2
 BV BND1      y_s43_i38_j15_k0
 BV BND1      y_s43_i38_j15_k1
 BV BND1      y_s43_i38_j15_k2
 BV BND1      y_s43_i39_j53_k0
 BV BND1      y_s43_i39_j53_k1
 BV BND1      y_s43_i39_j53_k2
 BV BND1      y_s43_i40_j37_k0
 BV BND1      y_s43_i40_j37_k1
 BV BND1      y_s43_i40_j37_k2
 BV BND1      y_s43_i41_j4_k0
 BV BND1      y_s43_i41_j4_k1
 BV BND1      y_s43_i41_j4_k2
 BV BND1      y_s43_i42_j44_k0
 BV BND1      y_s43_i42_j44_k1
 BV BND1      y_s43_i42_j44_k2
 BV BND1      y_s43_i43_j19_k0
 BV BND1      y_s43_i43_j19_k1
 BV BND1      y_s43_i43_j19_k2
 BV BND1      y_s43_i44_j50_k0
 BV BND1      y_s43_i44_j50_k1
 BV BND1      y_s43_i44_j50_k2
 BV BND1      y_s43_i45_j18_k0
 BV BND1      y_s43_i45_j18_k1
 BV BND1      y_s43_i45_j18_k2
 BV BND1      y_s43_i46_j42_k0
 BV BND1      y_s43_i46_j42_k1
 BV BND1      y_s43_i46_j42_k2
 BV BND1      y_s43_i47_j41_k0
 BV BND1      y_s43_i47_j41_k1
 BV BND1      y_s43_i47_j41_k2
 BV BND1      y_s43_i48_j51_k0
 BV BND1      y_s43_i48_j51_k1
 BV BND1      y_s43_i48_j51_k2
 BV BND1      y_s43_i49_j26_k0
 BV BND1      y_s43_i49_j26_k1
 BV BND1      y_s43_i49_j26_k2
 BV BND1      y_s43_i50_j48_k0
 BV BND1      y_s43_i50_j48_k1
 BV BND1      y_s43_i50_j48_k2
 BV BND1      y_s43_i51_j36_k0
 BV BND1      y_s43_i51_j36_k1
 BV BND1      y_s43_i51_j36_k2
 BV BND1      y_s43_i52_j47_k0
 BV BND1      y_s43_i52_j47_k1
 BV BND1      y_s43_i52_j47_k2
 BV BND1      y_s43_i53_j43_k0
 BV BND1      y_s43_i53_j43_k1
 BV BND1      y_s43_i53_j43_k2
 BV BND1      y_s72_i0_j2_k0
 BV BND1      y_s72_i0_j2_k1
 BV BND1      y_s72_i0_j2_k2
 BV BND1      y_s72_i1_j22_k0
 BV BND1      y_s72_i1_j22_k1
 BV BND1      y_s72_i1_j22_k2
 BV BND1      y_s72_i2_j1_k0
 BV BND1      y_s72_i2_j1_k1
 BV BND1      y_s72_i2_j1_k2
 BV BND1      y_s72_i3_j9_k0
 BV BND1      y_s72_i3_j9_k1
 BV BND1      y_s72_i3_j9_k2
 BV BND1      y_s72_i4_j34_k0
 BV BND1      y_s72_i4_j34_k1
 BV BND1      y_s72_i4_j34_k2
 BV BND1      y_s72_i5_j0_k0
 BV BND1      y_s72_i5_j0_k1
 BV BND1      y_s72_i5_j0_k2
 BV BND1      y_s72_i6_j52_k0
 BV BND1      y_s72_i6_j52_k1
 BV BND1      y_s72_i6_j52_k2
 BV BND1      y_s72_i7_j3_k0
 BV BND1      y_s72_i7_j3_k1
 BV BND1      y_s72_i7_j3_k2
 BV BND1      y_s72_i8_j10_k0
 BV BND1      y_s72_i8_j10_k1
 BV BND1      y_s72_i8_j10_k2
 BV BND1      y_s72_i9_j6_k0
 BV BND1      y_s72_i9_j6_k1
 BV BND1      y_s72_i9_j6_k2
 BV BND1      y_s72_i10_j5_k0
 BV BND1      y_s72_i10_j5_k1
 BV BND1      y_s72_i10_j5_k2
 BV BND1      y_s72_i11_j8_k0
 BV BND1      y_s72_i11_j8_k1
 BV BND1      y_s72_i11_j8_k2
 BV BND1      y_s72_i12_j11_k0
 BV BND1      y_s72_i12_j11_k1
 BV BND1      y_s72_i12_j11_k2
 BV BND1      y_s72_i13_j14_k0
 BV BND1      y_s72_i13_j14_k1
 BV BND1      y_s72_i13_j14_k2
 BV BND1      y_s72_i14_j12_k0
 BV BND1      y_s72_i14_j12_k1
 BV BND1      y_s72_i14_j12_k2
 BV BND1      y_s72_i15_j13_k0
 BV BND1      y_s72_i15_j13_k1
 BV BND1      y_s72_i15_j13_k2
 BV BND1      y_s72_i16_j17_k0
 BV BND1      y_s72_i16_j17_k1
 BV BND1      y_s72_i16_j17_k2
 BV BND1      y_s72_i17_j38_k0
 BV BND1      y_s72_i17_j38_k1
 BV BND1      y_s72_i17_j38_k2
 BV BND1      y_s72_i18_j20_k0
 BV BND1      y_s72_i18_j20_k1
 BV BND1      y_s72_i18_j20_k2
 BV BND1      y_s72_i19_j45_k0
 BV BND1      y_s72_i19_j45_k1
 BV BND1      y_s72_i19_j45_k2
 BV BND1      y_s72_i20_j16_k0
 BV BND1      y_s72_i20_j16_k1
 BV BND1      y_s72_i20_j16_k2
 BV BND1      y_s72_i21_j24_k0
 BV BND1      y_s72_i21_j24_k1
 BV BND1      y_s72_i21_j24_k2
 BV BND1      y_s72_i22_j21_k0
 BV BND1      y_s72_i22_j21_k1
 BV BND1      y_s72_i22_j21_k2
 BV BND1      y_s72_i23_j46_k0
 BV BND1      y_s72_i23_j46_k1
 BV BND1      y_s72_i23_j46_k2
 BV BND1      y_s72_i24_j23_k0
 BV BND1      y_s72_i24_j23_k1
 BV BND1      y_s72_i24_j23_k2
 BV BND1      y_s72_i25_j31_k0
 BV BND1      y_s72_i25_j31_k1
 BV BND1      y_s72_i25_j31_k2
 BV BND1      y_s72_i26_j27_k0
 BV BND1      y_s72_i26_j27_k1
 BV BND1      y_s72_i26_j27_k2
 BV BND1      y_s72_i27_j28_k0
 BV BND1      y_s72_i27_j28_k1
 BV BND1      y_s72_i27_j28_k2
 BV BND1      y_s72_i28_j25_k0
 BV BND1      y_s72_i28_j25_k1
 BV BND1      y_s72_i28_j25_k2
 BV BND1      y_s72_i29_j7_k0
 BV BND1      y_s72_i29_j7_k1
 BV BND1      y_s72_i29_j7_k2
 BV BND1      y_s72_i30_j29_k0
 BV BND1      y_s72_i30_j29_k1
 BV BND1      y_s72_i30_j29_k2
 BV BND1      y_s72_i31_j30_k0
 BV BND1      y_s72_i31_j30_k1
 BV BND1      y_s72_i31_j30_k2
 BV BND1      y_s72_i32_j40_k0
 BV BND1      y_s72_i32_j40_k1
 BV BND1      y_s72_i32_j40_k2
 BV BND1      y_s72_i33_j35_k0
 BV BND1      y_s72_i33_j35_k1
 BV BND1      y_s72_i33_j35_k2
 BV BND1      y_s72_i34_j33_k0
 BV BND1      y_s72_i34_j33_k1
 BV BND1      y_s72_i34_j33_k2
 BV BND1      y_s72_i35_j32_k0
 BV BND1      y_s72_i35_j32_k1
 BV BND1      y_s72_i35_j32_k2
 BV BND1      y_s72_i36_j49_k0
 BV BND1      y_s72_i36_j49_k1
 BV BND1      y_s72_i36_j49_k2
 BV BND1      y_s72_i37_j39_k0
 BV BND1      y_s72_i37_j39_k1
 BV BND1      y_s72_i37_j39_k2
 BV BND1      y_s72_i38_j15_k0
 BV BND1      y_s72_i38_j15_k1
 BV BND1      y_s72_i38_j15_k2
 BV BND1      y_s72_i39_j53_k0
 BV BND1      y_s72_i39_j53_k1
 BV BND1      y_s72_i39_j53_k2
 BV BND1      y_s72_i40_j37_k0
 BV BND1      y_s72_i40_j37_k1
 BV BND1      y_s72_i40_j37_k2
 BV BND1      y_s72_i41_j4_k0
 BV BND1      y_s72_i41_j4_k1
 BV BND1      y_s72_i41_j4_k2
 BV BND1      y_s72_i42_j44_k0
 BV BND1      y_s72_i42_j44_k1
 BV BND1      y_s72_i42_j44_k2
 BV BND1      y_s72_i43_j19_k0
 BV BND1      y_s72_i43_j19_k1
 BV BND1      y_s72_i43_j19_k2
 BV BND1      y_s72_i44_j50_k0
 BV BND1      y_s72_i44_j50_k1
 BV BND1      y_s72_i44_j50_k2
 BV BND1      y_s72_i45_j18_k0
 BV BND1      y_s72_i45_j18_k1
 BV BND1      y_s72_i45_j18_k2
 BV BND1      y_s72_i46_j42_k0
 BV BND1      y_s72_i46_j42_k1
 BV BND1      y_s72_i46_j42_k2
 BV BND1      y_s72_i47_j41_k0
 BV BND1      y_s72_i47_j41_k1
 BV BND1      y_s72_i47_j41_k2
 BV BND1      y_s72_i48_j51_k0
 BV BND1      y_s72_i48_j51_k1
 BV BND1      y_s72_i48_j51_k2
 BV BND1      y_s72_i49_j26_k0
 BV BND1      y_s72_i49_j26_k1
 BV BND1      y_s72_i49_j26_k2
 BV BND1      y_s72_i50_j48_k0
 BV BND1      y_s72_i50_j48_k1
 BV BND1      y_s72_i50_j48_k2
 BV BND1      y_s72_i51_j36_k0
 BV BND1      y_s72_i51_j36_k1
 BV BND1      y_s72_i51_j36_k2
 BV BND1      y_s72_i52_j47_k0
 BV BND1      y_s72_i52_j47_k1
 BV BND1      y_s72_i52_j47_k2
 BV BND1      y_s72_i53_j43_k0
 BV BND1      y_s72_i53_j43_k1
 BV BND1      y_s72_i53_j43_k2
ENDATA
