\ Model K_system_min_bad_IIS
\ LP format - for model browsing. Use MPS format to capture full model detail.
Minimize
 
Subject To
 rec_s67_edge_0_2_choose_one: y_s67_i0_j2_k0 + y_s67_i0_j2_k1
   + y_s67_i0_j2_k2 = 1
 rec_s67_edge_1_22_choose_one: y_s67_i1_j22_k0 + y_s67_i1_j22_k1
   + y_s67_i1_j22_k2 = 1
 rec_s67_edge_2_1_choose_one: y_s67_i2_j1_k0 + y_s67_i2_j1_k1
   + y_s67_i2_j1_k2 = 1
 rec_s67_edge_3_9_choose_one: y_s67_i3_j9_k0 + y_s67_i3_j9_k1
   + y_s67_i3_j9_k2 = 1
 rec_s67_edge_4_34_choose_one: y_s67_i4_j34_k0 + y_s67_i4_j34_k1
   + y_s67_i4_j34_k2 = 1
 rec_s67_edge_5_0_choose_one: y_s67_i5_j0_k0 + y_s67_i5_j0_k1
   + y_s67_i5_j0_k2 = 1
 rec_s67_edge_6_52_choose_one: y_s67_i6_j52_k0 + y_s67_i6_j52_k1
   + y_s67_i6_j52_k2 = 1
 rec_s67_edge_7_3_choose_one: y_s67_i7_j3_k0 + y_s67_i7_j3_k1
   + y_s67_i7_j3_k2 = 1
 rec_s67_edge_8_10_choose_one: y_s67_i8_j10_k0 + y_s67_i8_j10_k1
   + y_s67_i8_j10_k2 = 1
 rec_s67_edge_9_6_choose_one: y_s67_i9_j6_k0 + y_s67_i9_j6_k1
   + y_s67_i9_j6_k2 = 1
 rec_s67_edge_10_5_choose_one: y_s67_i10_j5_k0 + y_s67_i10_j5_k1
   + y_s67_i10_j5_k2 = 1
 rec_s67_edge_11_8_choose_one: y_s67_i11_j8_k0 + y_s67_i11_j8_k1
   + y_s67_i11_j8_k2 = 1
 rec_s67_edge_12_11_choose_one: y_s67_i12_j11_k0 + y_s67_i12_j11_k1
   + y_s67_i12_j11_k2 = 1
 rec_s67_edge_13_14_choose_one: y_s67_i13_j14_k0 + y_s67_i13_j14_k1
   + y_s67_i13_j14_k2 = 1
 rec_s67_edge_14_12_choose_one: y_s67_i14_j12_k0 + y_s67_i14_j12_k1
   + y_s67_i14_j12_k2 = 1
 rec_s67_edge_15_13_choose_one: y_s67_i15_j13_k0 + y_s67_i15_j13_k1
   + y_s67_i15_j13_k2 = 1
 rec_s67_edge_16_17_choose_one: y_s67_i16_j17_k0 + y_s67_i16_j17_k1
   + y_s67_i16_j17_k2 = 1
 rec_s67_edge_17_38_choose_one: y_s67_i17_j38_k0 + y_s67_i17_j38_k1
   + y_s67_i17_j38_k2 = 1
 rec_s67_edge_18_20_choose_one: y_s67_i18_j20_k0 + y_s67_i18_j20_k1
   + y_s67_i18_j20_k2 = 1
 rec_s67_edge_19_45_choose_one: y_s67_i19_j45_k0 + y_s67_i19_j45_k1
   + y_s67_i19_j45_k2 = 1
 rec_s67_edge_20_16_choose_one: y_s67_i20_j16_k0 + y_s67_i20_j16_k1
   + y_s67_i20_j16_k2 = 1
 rec_s67_edge_21_24_choose_one: y_s67_i21_j24_k0 + y_s67_i21_j24_k1
   + y_s67_i21_j24_k2 = 1
 rec_s67_edge_22_21_choose_one: y_s67_i22_j21_k0 + y_s67_i22_j21_k1
   + y_s67_i22_j21_k2 = 1
 rec_s67_edge_23_46_choose_one: y_s67_i23_j46_k0 + y_s67_i23_j46_k1
   + y_s67_i23_j46_k2 = 1
 rec_s67_edge_24_23_choose_one: y_s67_i24_j23_k0 + y_s67_i24_j23_k1
   + y_s67_i24_j23_k2 = 1
 rec_s67_edge_25_31_choose_one: y_s67_i25_j31_k0 + y_s67_i25_j31_k1
   + y_s67_i25_j31_k2 = 1
 rec_s67_edge_26_27_choose_one: y_s67_i26_j27_k0 + y_s67_i26_j27_k1
   + y_s67_i26_j27_k2 = 1
 rec_s67_edge_27_28_choose_one: y_s67_i27_j28_k0 + y_s67_i27_j28_k1
   + y_s67_i27_j28_k2 = 1
 rec_s67_edge_28_25_choose_one: y_s67_i28_j25_k0 + y_s67_i28_j25_k1
   + y_s67_i28_j25_k2 = 1
 rec_s67_edge_29_7_choose_one: y_s67_i29_j7_k0 + y_s67_i29_j7_k1
   + y_s67_i29_j7_k2 = 1
 rec_s67_edge_30_29_choose_one: y_s67_i30_j29_k0 + y_s67_i30_j29_k1
   + y_s67_i30_j29_k2 = 1
 rec_s67_edge_31_30_choose_one: y_s67_i31_j30_k0 + y_s67_i31_j30_k1
   + y_s67_i31_j30_k2 = 1
 rec_s67_edge_32_40_choose_one: y_s67_i32_j40_k0 + y_s67_i32_j40_k1
   + y_s67_i32_j40_k2 = 1
 rec_s67_edge_33_35_choose_one: y_s67_i33_j35_k0 + y_s67_i33_j35_k1
   + y_s67_i33_j35_k2 = 1
 rec_s67_edge_34_33_choose_one: y_s67_i34_j33_k0 + y_s67_i34_j33_k1
   + y_s67_i34_j33_k2 = 1
 rec_s67_edge_35_32_choose_one: y_s67_i35_j32_k0 + y_s67_i35_j32_k1
   + y_s67_i35_j32_k2 = 1
 rec_s67_edge_36_49_choose_one: y_s67_i36_j49_k0 + y_s67_i36_j49_k1
   + y_s67_i36_j49_k2 = 1
 rec_s67_edge_37_39_choose_one: y_s67_i37_j39_k0 + y_s67_i37_j39_k1
   + y_s67_i37_j39_k2 = 1
 rec_s67_edge_38_15_choose_one: y_s67_i38_j15_k0 + y_s67_i38_j15_k1
   + y_s67_i38_j15_k2 = 1
 rec_s67_edge_39_53_choose_one: y_s67_i39_j53_k0 + y_s67_i39_j53_k1
   + y_s67_i39_j53_k2 = 1
 rec_s67_edge_40_37_choose_one: y_s67_i40_j37_k0 + y_s67_i40_j37_k1
   + y_s67_i40_j37_k2 = 1
 rec_s67_edge_41_4_choose_one: y_s67_i41_j4_k0 + y_s67_i41_j4_k1
   + y_s67_i41_j4_k2 = 1
 rec_s67_edge_42_44_choose_one: y_s67_i42_j44_k0 + y_s67_i42_j44_k1
   + y_s67_i42_j44_k2 = 1
 rec_s67_edge_43_19_choose_one: y_s67_i43_j19_k0 + y_s67_i43_j19_k1
   + y_s67_i43_j19_k2 = 1
 rec_s67_edge_44_50_choose_one: y_s67_i44_j50_k0 + y_s67_i44_j50_k1
   + y_s67_i44_j50_k2 = 1
 rec_s67_edge_45_18_choose_one: y_s67_i45_j18_k0 + y_s67_i45_j18_k1
   + y_s67_i45_j18_k2 = 1
 rec_s67_edge_46_42_choose_one: y_s67_i46_j42_k0 + y_s67_i46_j42_k1
   + y_s67_i46_j42_k2 = 1
 rec_s67_edge_47_41_choose_one: y_s67_i47_j41_k0 + y_s67_i47_j41_k1
   + y_s67_i47_j41_k2 = 1
 rec_s67_edge_48_51_choose_one: y_s67_i48_j51_k0 + y_s67_i48_j51_k1
   + y_s67_i48_j51_k2 = 1
 rec_s67_edge_49_26_choose_one: y_s67_i49_j26_k0 + y_s67_i49_j26_k1
   + y_s67_i49_j26_k2 = 1
 rec_s67_edge_50_48_choose_one: y_s67_i50_j48_k0 + y_s67_i50_j48_k1
   + y_s67_i50_j48_k2 = 1
 rec_s67_edge_51_36_choose_one: y_s67_i51_j36_k0 + y_s67_i51_j36_k1
   + y_s67_i51_j36_k2 = 1
 rec_s67_edge_52_47_choose_one: y_s67_i52_j47_k0 + y_s67_i52_j47_k1
   + y_s67_i52_j47_k2 = 1
 rec_s67_edge_53_43_choose_one: y_s67_i53_j43_k0 + y_s67_i53_j43_k1
   + y_s67_i53_j43_k2 = 1
 rec_s80_edge_0_2_choose_one: y_s80_i0_j2_k0 + y_s80_i0_j2_k1
   + y_s80_i0_j2_k2 = 1
 rec_s80_edge_1_22_choose_one: y_s80_i1_j22_k0 + y_s80_i1_j22_k1
   + y_s80_i1_j22_k2 = 1
 rec_s80_edge_2_1_choose_one: y_s80_i2_j1_k0 + y_s80_i2_j1_k1
   + y_s80_i2_j1_k2 = 1
 rec_s80_edge_3_9_choose_one: y_s80_i3_j9_k0 + y_s80_i3_j9_k1
   + y_s80_i3_j9_k2 = 1
 rec_s80_edge_4_34_choose_one: y_s80_i4_j34_k0 + y_s80_i4_j34_k1
   + y_s80_i4_j34_k2 = 1
 rec_s80_edge_5_0_choose_one: y_s80_i5_j0_k0 + y_s80_i5_j0_k1
   + y_s80_i5_j0_k2 = 1
 rec_s80_edge_6_52_choose_one: y_s80_i6_j52_k0 + y_s80_i6_j52_k1
   + y_s80_i6_j52_k2 = 1
 rec_s80_edge_7_3_choose_one: y_s80_i7_j3_k0 + y_s80_i7_j3_k1
   + y_s80_i7_j3_k2 = 1
 rec_s80_edge_8_10_choose_one: y_s80_i8_j10_k0 + y_s80_i8_j10_k1
   + y_s80_i8_j10_k2 = 1
 rec_s80_edge_9_6_choose_one: y_s80_i9_j6_k0 + y_s80_i9_j6_k1
   + y_s80_i9_j6_k2 = 1
 rec_s80_edge_10_5_choose_one: y_s80_i10_j5_k0 + y_s80_i10_j5_k1
   + y_s80_i10_j5_k2 = 1
 rec_s80_edge_11_8_choose_one: y_s80_i11_j8_k0 + y_s80_i11_j8_k1
   + y_s80_i11_j8_k2 = 1
 rec_s80_edge_12_11_choose_one: y_s80_i12_j11_k0 + y_s80_i12_j11_k1
   + y_s80_i12_j11_k2 = 1
 rec_s80_edge_13_14_choose_one: y_s80_i13_j14_k0 + y_s80_i13_j14_k1
   + y_s80_i13_j14_k2 = 1
 rec_s80_edge_14_12_choose_one: y_s80_i14_j12_k0 + y_s80_i14_j12_k1
   + y_s80_i14_j12_k2 = 1
 rec_s80_edge_15_13_choose_one: y_s80_i15_j13_k0 + y_s80_i15_j13_k1
   + y_s80_i15_j13_k2 = 1
 rec_s80_edge_16_17_choose_one: y_s80_i16_j17_k0 + y_s80_i16_j17_k1
   + y_s80_i16_j17_k2 = 1
 rec_s80_edge_17_38_choose_one: y_s80_i17_j38_k0 + y_s80_i17_j38_k1
   + y_s80_i17_j38_k2 = 1
 rec_s80_edge_18_20_choose_one: y_s80_i18_j20_k0 + y_s80_i18_j20_k1
   + y_s80_i18_j20_k2 = 1
 rec_s80_edge_19_45_choose_one: y_s80_i19_j45_k0 + y_s80_i19_j45_k1
   + y_s80_i19_j45_k2 = 1
 rec_s80_edge_20_16_choose_one: y_s80_i20_j16_k0 + y_s80_i20_j16_k1
   + y_s80_i20_j16_k2 = 1
 rec_s80_edge_21_24_choose_one: y_s80_i21_j24_k0 + y_s80_i21_j24_k1
   + y_s80_i21_j24_k2 = 1
 rec_s80_edge_22_21_choose_one: y_s80_i22_j21_k0 + y_s80_i22_j21_k1
   + y_s80_i22_j21_k2 = 1
 rec_s80_edge_23_46_choose_one: y_s80_i23_j46_k0 + y_s80_i23_j46_k1
   + y_s80_i23_j46_k2 = 1
 rec_s80_edge_24_23_choose_one: y_s80_i24_j23_k0 + y_s80_i24_j23_k1
   + y_s80_i24_j23_k2 = 1
 rec_s80_edge_25_31_choose_one: y_s80_i25_j31_k0 + y_s80_i25_j31_k1
   + y_s80_i25_j31_k2 = 1
 rec_s80_edge_26_27_choose_one: y_s80_i26_j27_k0 + y_s80_i26_j27_k1
   + y_s80_i26_j27_k2 = 1
 rec_s80_edge_27_28_choose_one: y_s80_i27_j28_k0 + y_s80_i27_j28_k1
   + y_s80_i27_j28_k2 = 1
 rec_s80_edge_28_25_choose_one: y_s80_i28_j25_k0 + y_s80_i28_j25_k1
   + y_s80_i28_j25_k2 = 1
 rec_s80_edge_29_7_choose_one: y_s80_i29_j7_k0 + y_s80_i29_j7_k1
   + y_s80_i29_j7_k2 = 1
 rec_s80_edge_30_29_choose_one: y_s80_i30_j29_k0 + y_s80_i30_j29_k1
   + y_s80_i30_j29_k2 = 1
 rec_s80_edge_31_30_choose_one: y_s80_i31_j30_k0 + y_s80_i31_j30_k1
   + y_s80_i31_j30_k2 = 1
 rec_s80_edge_32_40_choose_one: y_s80_i32_j40_k0 + y_s80_i32_j40_k1
   + y_s80_i32_j40_k2 = 1
 rec_s80_edge_33_35_choose_one: y_s80_i33_j35_k0 + y_s80_i33_j35_k1
   + y_s80_i33_j35_k2 = 1
 rec_s80_edge_34_33_choose_one: y_s80_i34_j33_k0 + y_s80_i34_j33_k1
   + y_s80_i34_j33_k2 = 1
 rec_s80_edge_35_32_choose_one: y_s80_i35_j32_k0 + y_s80_i35_j32_k1
   + y_s80_i35_j32_k2 = 1
 rec_s80_edge_36_49_choose_one: y_s80_i36_j49_k0 + y_s80_i36_j49_k1
   + y_s80_i36_j49_k2 = 1
 rec_s80_edge_37_39_choose_one: y_s80_i37_j39_k0 + y_s80_i37_j39_k1
   + y_s80_i37_j39_k2 = 1
 rec_s80_edge_38_15_choose_one: y_s80_i38_j15_k0 + y_s80_i38_j15_k1
   + y_s80_i38_j15_k2 = 1
 rec_s80_edge_39_53_choose_one: y_s80_i39_j53_k0 + y_s80_i39_j53_k1
   + y_s80_i39_j53_k2 = 1
 rec_s80_edge_40_37_choose_one: y_s80_i40_j37_k0 + y_s80_i40_j37_k1
   + y_s80_i40_j37_k2 = 1
 rec_s80_edge_41_4_choose_one: y_s80_i41_j4_k0 + y_s80_i41_j4_k1
   + y_s80_i41_j4_k2 = 1
 rec_s80_edge_42_44_choose_one: y_s80_i42_j44_k0 + y_s80_i42_j44_k1
   + y_s80_i42_j44_k2 = 1
 rec_s80_edge_43_19_choose_one: y_s80_i43_j19_k0 + y_s80_i43_j19_k1
   + y_s80_i43_j19_k2 = 1
 rec_s80_edge_44_50_choose_one: y_s80_i44_j50_k0 + y_s80_i44_j50_k1
   + y_s80_i44_j50_k2 = 1
 rec_s80_edge_45_18_choose_one: y_s80_i45_j18_k0 + y_s80_i45_j18_k1
   + y_s80_i45_j18_k2 = 1
 rec_s80_edge_46_42_choose_one: y_s80_i46_j42_k0 + y_s80_i46_j42_k1
   + y_s80_i46_j42_k2 = 1
 rec_s80_edge_47_41_choose_one: y_s80_i47_j41_k0 + y_s80_i47_j41_k1
   + y_s80_i47_j41_k2 = 1
 rec_s80_edge_48_51_choose_one: y_s80_i48_j51_k0 + y_s80_i48_j51_k1
   + y_s80_i48_j51_k2 = 1
 rec_s80_edge_49_26_choose_one: y_s80_i49_j26_k0 + y_s80_i49_j26_k1
   + y_s80_i49_j26_k2 = 1
 rec_s80_edge_50_48_choose_one: y_s80_i50_j48_k0 + y_s80_i50_j48_k1
   + y_s80_i50_j48_k2 = 1
 rec_s80_edge_51_36_choose_one: y_s80_i51_j36_k0 + y_s80_i51_j36_k1
   + y_s80_i51_j36_k2 = 1
 rec_s80_edge_52_47_choose_one: y_s80_i52_j47_k0 + y_s80_i52_j47_k1
   + y_s80_i52_j47_k2 = 1
 rec_s80_edge_53_43_choose_one: y_s80_i53_j43_k0 + y_s80_i53_j43_k1
   + y_s80_i53_j43_k2 = 1
 rec_s55_edge_0_2_choose_one: y_s55_i0_j2_k0 + y_s55_i0_j2_k1
   + y_s55_i0_j2_k2 = 1
 rec_s55_edge_1_22_choose_one: y_s55_i1_j22_k0 + y_s55_i1_j22_k1
   + y_s55_i1_j22_k2 = 1
 rec_s55_edge_2_1_choose_one: y_s55_i2_j1_k0 + y_s55_i2_j1_k1
   + y_s55_i2_j1_k2 = 1
 rec_s55_edge_3_9_choose_one: y_s55_i3_j9_k0 + y_s55_i3_j9_k1
   + y_s55_i3_j9_k2 = 1
 rec_s55_edge_4_34_choose_one: y_s55_i4_j34_k0 + y_s55_i4_j34_k1
   + y_s55_i4_j34_k2 = 1
 rec_s55_edge_5_0_choose_one: y_s55_i5_j0_k0 + y_s55_i5_j0_k1
   + y_s55_i5_j0_k2 = 1
 rec_s55_edge_6_52_choose_one: y_s55_i6_j52_k0 + y_s55_i6_j52_k1
   + y_s55_i6_j52_k2 = 1
 rec_s55_edge_7_3_choose_one: y_s55_i7_j3_k0 + y_s55_i7_j3_k1
   + y_s55_i7_j3_k2 = 1
 rec_s55_edge_8_10_choose_one: y_s55_i8_j10_k0 + y_s55_i8_j10_k1
   + y_s55_i8_j10_k2 = 1
 rec_s55_edge_9_6_choose_one: y_s55_i9_j6_k0 + y_s55_i9_j6_k1
   + y_s55_i9_j6_k2 = 1
 rec_s55_edge_10_5_choose_one: y_s55_i10_j5_k0 + y_s55_i10_j5_k1
   + y_s55_i10_j5_k2 = 1
 rec_s55_edge_11_8_choose_one: y_s55_i11_j8_k0 + y_s55_i11_j8_k1
   + y_s55_i11_j8_k2 = 1
 rec_s55_edge_12_11_choose_one: y_s55_i12_j11_k0 + y_s55_i12_j11_k1
   + y_s55_i12_j11_k2 = 1
 rec_s55_edge_13_14_choose_one: y_s55_i13_j14_k0 + y_s55_i13_j14_k1
   + y_s55_i13_j14_k2 = 1
 rec_s55_edge_14_12_choose_one: y_s55_i14_j12_k0 + y_s55_i14_j12_k1
   + y_s55_i14_j12_k2 = 1
 rec_s55_edge_15_13_choose_one: y_s55_i15_j13_k0 + y_s55_i15_j13_k1
   + y_s55_i15_j13_k2 = 1
 rec_s55_edge_16_17_choose_one: y_s55_i16_j17_k0 + y_s55_i16_j17_k1
   + y_s55_i16_j17_k2 = 1
 rec_s55_edge_17_38_choose_one: y_s55_i17_j38_k0 + y_s55_i17_j38_k1
   + y_s55_i17_j38_k2 = 1
 rec_s55_edge_18_20_choose_one: y_s55_i18_j20_k0 + y_s55_i18_j20_k1
   + y_s55_i18_j20_k2 = 1
 rec_s55_edge_19_45_choose_one: y_s55_i19_j45_k0 + y_s55_i19_j45_k1
   + y_s55_i19_j45_k2 = 1
 rec_s55_edge_20_16_choose_one: y_s55_i20_j16_k0 + y_s55_i20_j16_k1
   + y_s55_i20_j16_k2 = 1
 rec_s55_edge_21_24_choose_one: y_s55_i21_j24_k0 + y_s55_i21_j24_k1
   + y_s55_i21_j24_k2 = 1
 rec_s55_edge_22_21_choose_one: y_s55_i22_j21_k0 + y_s55_i22_j21_k1
   + y_s55_i22_j21_k2 = 1
 rec_s55_edge_23_46_choose_one: y_s55_i23_j46_k0 + y_s55_i23_j46_k1
   + y_s55_i23_j46_k2 = 1
 rec_s55_edge_24_23_choose_one: y_s55_i24_j23_k0 + y_s55_i24_j23_k1
   + y_s55_i24_j23_k2 = 1
 rec_s55_edge_25_31_choose_one: y_s55_i25_j31_k0 + y_s55_i25_j31_k1
   + y_s55_i25_j31_k2 = 1
 rec_s55_edge_26_27_choose_one: y_s55_i26_j27_k0 + y_s55_i26_j27_k1
   + y_s55_i26_j27_k2 = 1
 rec_s55_edge_27_28_choose_one: y_s55_i27_j28_k0 + y_s55_i27_j28_k1
   + y_s55_i27_j28_k2 = 1
 rec_s55_edge_28_25_choose_one: y_s55_i28_j25_k0 + y_s55_i28_j25_k1
   + y_s55_i28_j25_k2 = 1
 rec_s55_edge_29_7_choose_one: y_s55_i29_j7_k0 + y_s55_i29_j7_k1
   + y_s55_i29_j7_k2 = 1
 rec_s55_edge_30_29_choose_one: y_s55_i30_j29_k0 + y_s55_i30_j29_k1
   + y_s55_i30_j29_k2 = 1
 rec_s55_edge_31_30_choose_one: y_s55_i31_j30_k0 + y_s55_i31_j30_k1
   + y_s55_i31_j30_k2 = 1
 rec_s55_edge_32_40_choose_one: y_s55_i32_j40_k0 + y_s55_i32_j40_k1
   + y_s55_i32_j40_k2 = 1
 rec_s55_edge_33_35_choose_one: y_s55_i33_j35_k0 + y_s55_i33_j35_k1
   + y_s55_i33_j35_k2 = 1
 rec_s55_edge_34_33_choose_one: y_s55_i34_j33_k0 + y_s55_i34_j33_k1
   + y_s55_i34_j33_k2 = 1
 rec_s55_edge_35_32_choose_one: y_s55_i35_j32_k0 + y_s55_i35_j32_k1
   + y_s55_i35_j32_k2 = 1
 rec_s55_edge_36_49_choose_one: y_s55_i36_j49_k0 + y_s55_i36_j49_k1
   + y_s55_i36_j49_k2 = 1
 rec_s55_edge_37_39_choose_one: y_s55_i37_j39_k0 + y_s55_i37_j39_k1
   + y_s55_i37_j39_k2 = 1
 rec_s55_edge_38_15_choose_one: y_s55_i38_j15_k0 + y_s55_i38_j15_k1
   + y_s55_i38_j15_k2 = 1
 rec_s55_edge_39_53_choose_one: y_s55_i39_j53_k0 + y_s55_i39_j53_k1
   + y_s55_i39_j53_k2 = 1
 rec_s55_edge_40_37_choose_one: y_s55_i40_j37_k0 + y_s55_i40_j37_k1
   + y_s55_i40_j37_k2 = 1
 rec_s55_edge_41_4_choose_one: y_s55_i41_j4_k0 + y_s55_i41_j4_k1
   + y_s55_i41_j4_k2 = 1
 rec_s55_edge_42_44_choose_one: y_s55_i42_j44_k0 + y_s55_i42_j44_k1
   + y_s55_i42_j44_k2 = 1
 rec_s55_edge_43_19_choose_one: y_s55_i43_j19_k0 + y_s55_i43_j19_k1
   + y_s55_i43_j19_k2 = 1
 rec_s55_edge_44_50_choose_one: y_s55_i44_j50_k0 + y_s55_i44_j50_k1
   + y_s55_i44_j50_k2 = 1
 rec_s55_edge_45_18_choose_one: y_s55_i45_j18_k0 + y_s55_i45_j18_k1
   + y_s55_i45_j18_k2 = 1
 rec_s55_edge_46_42_choose_one: y_s55_i46_j42_k0 + y_s55_i46_j42_k1
   + y_s55_i46_j42_k2 = 1
 rec_s55_edge_47_41_choose_one: y_s55_i47_j41_k0 + y_s55_i47_j41_k1
   + y_s55_i47_j41_k2 = 1
 rec_s55_edge_48_51_choose_one: y_s55_i48_j51_k0 + y_s55_i48_j51_k1
   + y_s55_i48_j51_k2 = 1
 rec_s55_edge_49_26_choose_one: y_s55_i49_j26_k0 + y_s55_i49_j26_k1
   + y_s55_i49_j26_k2 = 1
 rec_s55_edge_50_48_choose_one: y_s55_i50_j48_k0 + y_s55_i50_j48_k1
   + y_s55_i50_j48_k2 = 1
 rec_s55_edge_51_36_choose_one: y_s55_i51_j36_k0 + y_s55_i51_j36_k1
   + y_s55_i51_j36_k2 = 1
 rec_s55_edge_52_47_choose_one: y_s55_i52_j47_k0 + y_s55_i52_j47_k1
   + y_s55_i52_j47_k2 = 1
 rec_s55_edge_53_43_choose_one: y_s55_i53_j43_k0 + y_s55_i53_j43_k1
   + y_s55_i53_j43_k2 = 1
 rec_s4_edge_0_2_choose_one: y_s4_i0_j2_k0 + y_s4_i0_j2_k1 + y_s4_i0_j2_k2
   = 1
 rec_s4_edge_1_22_choose_one: y_s4_i1_j22_k0 + y_s4_i1_j22_k1
   + y_s4_i1_j22_k2 = 1
 rec_s4_edge_2_1_choose_one: y_s4_i2_j1_k0 + y_s4_i2_j1_k1 + y_s4_i2_j1_k2
   = 1
 rec_s4_edge_3_9_choose_one: y_s4_i3_j9_k0 + y_s4_i3_j9_k1 + y_s4_i3_j9_k2
   = 1
 rec_s4_edge_4_34_choose_one: y_s4_i4_j34_k0 + y_s4_i4_j34_k1
   + y_s4_i4_j34_k2 = 1
 rec_s4_edge_5_0_choose_one: y_s4_i5_j0_k0 + y_s4_i5_j0_k1 + y_s4_i5_j0_k2
   = 1
 rec_s4_edge_6_52_choose_one: y_s4_i6_j52_k0 + y_s4_i6_j52_k1
   + y_s4_i6_j52_k2 = 1
 rec_s4_edge_7_3_choose_one: y_s4_i7_j3_k0 + y_s4_i7_j3_k1 + y_s4_i7_j3_k2
   = 1
 rec_s4_edge_8_10_choose_one: y_s4_i8_j10_k0 + y_s4_i8_j10_k1
   + y_s4_i8_j10_k2 = 1
 rec_s4_edge_9_6_choose_one: y_s4_i9_j6_k0 + y_s4_i9_j6_k1 + y_s4_i9_j6_k2
   = 1
 rec_s4_edge_10_5_choose_one: y_s4_i10_j5_k0 + y_s4_i10_j5_k1
   + y_s4_i10_j5_k2 = 1
 rec_s4_edge_11_8_choose_one: y_s4_i11_j8_k0 + y_s4_i11_j8_k1
   + y_s4_i11_j8_k2 = 1
 rec_s4_edge_12_11_choose_one: y_s4_i12_j11_k0 + y_s4_i12_j11_k1
   + y_s4_i12_j11_k2 = 1
 rec_s4_edge_13_14_choose_one: y_s4_i13_j14_k0 + y_s4_i13_j14_k1
   + y_s4_i13_j14_k2 = 1
 rec_s4_edge_14_12_choose_one: y_s4_i14_j12_k0 + y_s4_i14_j12_k1
   + y_s4_i14_j12_k2 = 1
 rec_s4_edge_15_13_choose_one: y_s4_i15_j13_k0 + y_s4_i15_j13_k1
   + y_s4_i15_j13_k2 = 1
 rec_s4_edge_16_17_choose_one: y_s4_i16_j17_k0 + y_s4_i16_j17_k1
   + y_s4_i16_j17_k2 = 1
 rec_s4_edge_17_38_choose_one: y_s4_i17_j38_k0 + y_s4_i17_j38_k1
   + y_s4_i17_j38_k2 = 1
 rec_s4_edge_18_20_choose_one: y_s4_i18_j20_k0 + y_s4_i18_j20_k1
   + y_s4_i18_j20_k2 = 1
 rec_s4_edge_19_45_choose_one: y_s4_i19_j45_k0 + y_s4_i19_j45_k1
   + y_s4_i19_j45_k2 = 1
 rec_s4_edge_20_16_choose_one: y_s4_i20_j16_k0 + y_s4_i20_j16_k1
   + y_s4_i20_j16_k2 = 1
 rec_s4_edge_21_24_choose_one: y_s4_i21_j24_k0 + y_s4_i21_j24_k1
   + y_s4_i21_j24_k2 = 1
 rec_s4_edge_22_21_choose_one: y_s4_i22_j21_k0 + y_s4_i22_j21_k1
   + y_s4_i22_j21_k2 = 1
 rec_s4_edge_23_46_choose_one: y_s4_i23_j46_k0 + y_s4_i23_j46_k1
   + y_s4_i23_j46_k2 = 1
 rec_s4_edge_24_23_choose_one: y_s4_i24_j23_k0 + y_s4_i24_j23_k1
   + y_s4_i24_j23_k2 = 1
 rec_s4_edge_25_31_choose_one: y_s4_i25_j31_k0 + y_s4_i25_j31_k1
   + y_s4_i25_j31_k2 = 1
 rec_s4_edge_26_27_choose_one: y_s4_i26_j27_k0 + y_s4_i26_j27_k1
   + y_s4_i26_j27_k2 = 1
 rec_s4_edge_27_28_choose_one: y_s4_i27_j28_k0 + y_s4_i27_j28_k1
   + y_s4_i27_j28_k2 = 1
 rec_s4_edge_28_25_choose_one: y_s4_i28_j25_k0 + y_s4_i28_j25_k1
   + y_s4_i28_j25_k2 = 1
 rec_s4_edge_29_7_choose_one: y_s4_i29_j7_k0 + y_s4_i29_j7_k1
   + y_s4_i29_j7_k2 = 1
 rec_s4_edge_30_29_choose_one: y_s4_i30_j29_k0 + y_s4_i30_j29_k1
   + y_s4_i30_j29_k2 = 1
 rec_s4_edge_31_30_choose_one: y_s4_i31_j30_k0 + y_s4_i31_j30_k1
   + y_s4_i31_j30_k2 = 1
 rec_s4_edge_32_40_choose_one: y_s4_i32_j40_k0 + y_s4_i32_j40_k1
   + y_s4_i32_j40_k2 = 1
 rec_s4_edge_33_35_choose_one: y_s4_i33_j35_k0 + y_s4_i33_j35_k1
   + y_s4_i33_j35_k2 = 1
 rec_s4_edge_34_33_choose_one: y_s4_i34_j33_k0 + y_s4_i34_j33_k1
   + y_s4_i34_j33_k2 = 1
 rec_s4_edge_35_32_choose_one: y_s4_i35_j32_k0 + y_s4_i35_j32_k1
   + y_s4_i35_j32_k2 = 1
 rec_s4_edge_36_49_choose_one: y_s4_i36_j49_k0 + y_s4_i36_j49_k1
   + y_s4_i36_j49_k2 = 1
 rec_s4_edge_37_39_choose_one: y_s4_i37_j39_k0 + y_s4_i37_j39_k1
   + y_s4_i37_j39_k2 = 1
 rec_s4_edge_38_15_choose_one: y_s4_i38_j15_k0 + y_s4_i38_j15_k1
   + y_s4_i38_j15_k2 = 1
 rec_s4_edge_39_53_choose_one: y_s4_i39_j53_k0 + y_s4_i39_j53_k1
   + y_s4_i39_j53_k2 = 1
 rec_s4_edge_40_37_choose_one: y_s4_i40_j37_k0 + y_s4_i40_j37_k1
   + y_s4_i40_j37_k2 = 1
 rec_s4_edge_41_4_choose_one: y_s4_i41_j4_k0 + y_s4_i41_j4_k1
   + y_s4_i41_j4_k2 = 1
 rec_s4_edge_42_44_choose_one: y_s4_i42_j44_k0 + y_s4_i42_j44_k1
   + y_s4_i42_j44_k2 = 1
 rec_s4_edge_43_19_choose_one: y_s4_i43_j19_k0 + y_s4_i43_j19_k1
   + y_s4_i43_j19_k2 = 1
 rec_s4_edge_44_50_choose_one: y_s4_i44_j50_k0 + y_s4_i44_j50_k1
   + y_s4_i44_j50_k2 = 1
 rec_s4_edge_45_18_choose_one: y_s4_i45_j18_k0 + y_s4_i45_j18_k1
   + y_s4_i45_j18_k2 = 1
 rec_s4_edge_46_42_choose_one: y_s4_i46_j42_k0 + y_s4_i46_j42_k1
   + y_s4_i46_j42_k2 = 1
 rec_s4_edge_47_41_choose_one: y_s4_i47_j41_k0 + y_s4_i47_j41_k1
   + y_s4_i47_j41_k2 = 1
 rec_s4_edge_48_51_choose_one: y_s4_i48_j51_k0 + y_s4_i48_j51_k1
   + y_s4_i48_j51_k2 = 1
 rec_s4_edge_49_26_choose_one: y_s4_i49_j26_k0 + y_s4_i49_j26_k1
   + y_s4_i49_j26_k2 = 1
 rec_s4_edge_50_48_choose_one: y_s4_i50_j48_k0 + y_s4_i50_j48_k1
   + y_s4_i50_j48_k2 = 1
 rec_s4_edge_51_36_choose_one: y_s4_i51_j36_k0 + y_s4_i51_j36_k1
   + y_s4_i51_j36_k2 = 1
 rec_s4_edge_52_47_choose_one: y_s4_i52_j47_k0 + y_s4_i52_j47_k1
   + y_s4_i52_j47_k2 = 1
 rec_s4_edge_53_43_choose_one: y_s4_i53_j43_k0 + y_s4_i53_j43_k1
   + y_s4_i53_j43_k2 = 1
 rec_s5_edge_0_2_choose_one: y_s5_i0_j2_k0 + y_s5_i0_j2_k1 + y_s5_i0_j2_k2
   = 1
 rec_s5_edge_1_22_choose_one: y_s5_i1_j22_k0 + y_s5_i1_j22_k1
   + y_s5_i1_j22_k2 = 1
 rec_s5_edge_2_1_choose_one: y_s5_i2_j1_k0 + y_s5_i2_j1_k1 + y_s5_i2_j1_k2
   = 1
 rec_s5_edge_3_9_choose_one: y_s5_i3_j9_k0 + y_s5_i3_j9_k1 + y_s5_i3_j9_k2
   = 1
 rec_s5_edge_4_34_choose_one: y_s5_i4_j34_k0 + y_s5_i4_j34_k1
   + y_s5_i4_j34_k2 = 1
 rec_s5_edge_5_0_choose_one: y_s5_i5_j0_k0 + y_s5_i5_j0_k1 + y_s5_i5_j0_k2
   = 1
 rec_s5_edge_6_52_choose_one: y_s5_i6_j52_k0 + y_s5_i6_j52_k1
   + y_s5_i6_j52_k2 = 1
 rec_s5_edge_7_3_choose_one: y_s5_i7_j3_k0 + y_s5_i7_j3_k1 + y_s5_i7_j3_k2
   = 1
 rec_s5_edge_8_10_choose_one: y_s5_i8_j10_k0 + y_s5_i8_j10_k1
   + y_s5_i8_j10_k2 = 1
 rec_s5_edge_9_6_choose_one: y_s5_i9_j6_k0 + y_s5_i9_j6_k1 + y_s5_i9_j6_k2
   = 1
 rec_s5_edge_10_5_choose_one: y_s5_i10_j5_k0 + y_s5_i10_j5_k1
   + y_s5_i10_j5_k2 = 1
 rec_s5_edge_11_8_choose_one: y_s5_i11_j8_k0 + y_s5_i11_j8_k1
   + y_s5_i11_j8_k2 = 1
 rec_s5_edge_12_11_choose_one: y_s5_i12_j11_k0 + y_s5_i12_j11_k1
   + y_s5_i12_j11_k2 = 1
 rec_s5_edge_13_14_choose_one: y_s5_i13_j14_k0 + y_s5_i13_j14_k1
   + y_s5_i13_j14_k2 = 1
 rec_s5_edge_14_12_choose_one: y_s5_i14_j12_k0 + y_s5_i14_j12_k1
   + y_s5_i14_j12_k2 = 1
 rec_s5_edge_15_13_choose_one: y_s5_i15_j13_k0 + y_s5_i15_j13_k1
   + y_s5_i15_j13_k2 = 1
 rec_s5_edge_16_17_choose_one: y_s5_i16_j17_k0 + y_s5_i16_j17_k1
   + y_s5_i16_j17_k2 = 1
 rec_s5_edge_17_38_choose_one: y_s5_i17_j38_k0 + y_s5_i17_j38_k1
   + y_s5_i17_j38_k2 = 1
 rec_s5_edge_18_20_choose_one: y_s5_i18_j20_k0 + y_s5_i18_j20_k1
   + y_s5_i18_j20_k2 = 1
 rec_s5_edge_19_45_choose_one: y_s5_i19_j45_k0 + y_s5_i19_j45_k1
   + y_s5_i19_j45_k2 = 1
 rec_s5_edge_20_16_choose_one: y_s5_i20_j16_k0 + y_s5_i20_j16_k1
   + y_s5_i20_j16_k2 = 1
 rec_s5_edge_21_24_choose_one: y_s5_i21_j24_k0 + y_s5_i21_j24_k1
   + y_s5_i21_j24_k2 = 1
 rec_s5_edge_22_21_choose_one: y_s5_i22_j21_k0 + y_s5_i22_j21_k1
   + y_s5_i22_j21_k2 = 1
 rec_s5_edge_23_46_choose_one: y_s5_i23_j46_k0 + y_s5_i23_j46_k1
   + y_s5_i23_j46_k2 = 1
 rec_s5_edge_24_23_choose_one: y_s5_i24_j23_k0 + y_s5_i24_j23_k1
   + y_s5_i24_j23_k2 = 1
 rec_s5_edge_25_31_choose_one: y_s5_i25_j31_k0 + y_s5_i25_j31_k1
   + y_s5_i25_j31_k2 = 1
 rec_s5_edge_26_27_choose_one: y_s5_i26_j27_k0 + y_s5_i26_j27_k1
   + y_s5_i26_j27_k2 = 1
 rec_s5_edge_27_28_choose_one: y_s5_i27_j28_k0 + y_s5_i27_j28_k1
   + y_s5_i27_j28_k2 = 1
 rec_s5_edge_28_25_choose_one: y_s5_i28_j25_k0 + y_s5_i28_j25_k1
   + y_s5_i28_j25_k2 = 1
 rec_s5_edge_29_7_choose_one: y_s5_i29_j7_k0 + y_s5_i29_j7_k1
   + y_s5_i29_j7_k2 = 1
 rec_s5_edge_30_29_choose_one: y_s5_i30_j29_k0 + y_s5_i30_j29_k1
   + y_s5_i30_j29_k2 = 1
 rec_s5_edge_31_30_choose_one: y_s5_i31_j30_k0 + y_s5_i31_j30_k1
   + y_s5_i31_j30_k2 = 1
 rec_s5_edge_32_40_choose_one: y_s5_i32_j40_k0 + y_s5_i32_j40_k1
   + y_s5_i32_j40_k2 = 1
 rec_s5_edge_33_35_choose_one: y_s5_i33_j35_k0 + y_s5_i33_j35_k1
   + y_s5_i33_j35_k2 = 1
 rec_s5_edge_34_33_choose_one: y_s5_i34_j33_k0 + y_s5_i34_j33_k1
   + y_s5_i34_j33_k2 = 1
 rec_s5_edge_35_32_choose_one: y_s5_i35_j32_k0 + y_s5_i35_j32_k1
   + y_s5_i35_j32_k2 = 1
 rec_s5_edge_36_49_choose_one: y_s5_i36_j49_k0 + y_s5_i36_j49_k1
   + y_s5_i36_j49_k2 = 1
 rec_s5_edge_37_39_choose_one: y_s5_i37_j39_k0 + y_s5_i37_j39_k1
   + y_s5_i37_j39_k2 = 1
 rec_s5_edge_38_15_choose_one: y_s5_i38_j15_k0 + y_s5_i38_j15_k1
   + y_s5_i38_j15_k2 = 1
 rec_s5_edge_39_53_choose_one: y_s5_i39_j53_k0 + y_s5_i39_j53_k1
   + y_s5_i39_j53_k2 = 1
 rec_s5_edge_40_37_choose_one: y_s5_i40_j37_k0 + y_s5_i40_j37_k1
   + y_s5_i40_j37_k2 = 1
 rec_s5_edge_41_4_choose_one: y_s5_i41_j4_k0 + y_s5_i41_j4_k1
   + y_s5_i41_j4_k2 = 1
 rec_s5_edge_42_44_choose_one: y_s5_i42_j44_k0 + y_s5_i42_j44_k1
   + y_s5_i42_j44_k2 = 1
 rec_s5_edge_43_19_choose_one: y_s5_i43_j19_k0 + y_s5_i43_j19_k1
   + y_s5_i43_j19_k2 = 1
 rec_s5_edge_44_50_choose_one: y_s5_i44_j50_k0 + y_s5_i44_j50_k1
   + y_s5_i44_j50_k2 = 1
 rec_s5_edge_45_18_choose_one: y_s5_i45_j18_k0 + y_s5_i45_j18_k1
   + y_s5_i45_j18_k2 = 1
 rec_s5_edge_46_42_choose_one: y_s5_i46_j42_k0 + y_s5_i46_j42_k1
   + y_s5_i46_j42_k2 = 1
 rec_s5_edge_47_41_choose_one: y_s5_i47_j41_k0 + y_s5_i47_j41_k1
   + y_s5_i47_j41_k2 = 1
 rec_s5_edge_48_51_choose_one: y_s5_i48_j51_k0 + y_s5_i48_j51_k1
   + y_s5_i48_j51_k2 = 1
 rec_s5_edge_49_26_choose_one: y_s5_i49_j26_k0 + y_s5_i49_j26_k1
   + y_s5_i49_j26_k2 = 1
 rec_s5_edge_50_48_choose_one: y_s5_i50_j48_k0 + y_s5_i50_j48_k1
   + y_s5_i50_j48_k2 = 1
 rec_s5_edge_51_36_choose_one: y_s5_i51_j36_k0 + y_s5_i51_j36_k1
   + y_s5_i51_j36_k2 = 1
 rec_s5_edge_52_47_choose_one: y_s5_i52_j47_k0 + y_s5_i52_j47_k1
   + y_s5_i52_j47_k2 = 1
 rec_s5_edge_53_43_choose_one: y_s5_i53_j43_k0 + y_s5_i53_j43_k1
   + y_s5_i53_j43_k2 = 1
 rec_s62_edge_0_2_choose_one: y_s62_i0_j2_k0 + y_s62_i0_j2_k1
   + y_s62_i0_j2_k2 = 1
 rec_s62_edge_1_22_choose_one: y_s62_i1_j22_k0 + y_s62_i1_j22_k1
   + y_s62_i1_j22_k2 = 1
 rec_s62_edge_2_1_choose_one: y_s62_i2_j1_k0 + y_s62_i2_j1_k1
   + y_s62_i2_j1_k2 = 1
 rec_s62_edge_3_9_choose_one: y_s62_i3_j9_k0 + y_s62_i3_j9_k1
   + y_s62_i3_j9_k2 = 1
 rec_s62_edge_4_34_choose_one: y_s62_i4_j34_k0 + y_s62_i4_j34_k1
   + y_s62_i4_j34_k2 = 1
 rec_s62_edge_5_0_choose_one: y_s62_i5_j0_k0 + y_s62_i5_j0_k1
   + y_s62_i5_j0_k2 = 1
 rec_s62_edge_6_52_choose_one: y_s62_i6_j52_k0 + y_s62_i6_j52_k1
   + y_s62_i6_j52_k2 = 1
 rec_s62_edge_7_3_choose_one: y_s62_i7_j3_k0 + y_s62_i7_j3_k1
   + y_s62_i7_j3_k2 = 1
 rec_s62_edge_8_10_choose_one: y_s62_i8_j10_k0 + y_s62_i8_j10_k1
   + y_s62_i8_j10_k2 = 1
 rec_s62_edge_9_6_choose_one: y_s62_i9_j6_k0 + y_s62_i9_j6_k1
   + y_s62_i9_j6_k2 = 1
 rec_s62_edge_10_5_choose_one: y_s62_i10_j5_k0 + y_s62_i10_j5_k1
   + y_s62_i10_j5_k2 = 1
 rec_s62_edge_11_8_choose_one: y_s62_i11_j8_k0 + y_s62_i11_j8_k1
   + y_s62_i11_j8_k2 = 1
 rec_s62_edge_12_11_choose_one: y_s62_i12_j11_k0 + y_s62_i12_j11_k1
   + y_s62_i12_j11_k2 = 1
 rec_s62_edge_13_14_choose_one: y_s62_i13_j14_k0 + y_s62_i13_j14_k1
   + y_s62_i13_j14_k2 = 1
 rec_s62_edge_14_12_choose_one: y_s62_i14_j12_k0 + y_s62_i14_j12_k1
   + y_s62_i14_j12_k2 = 1
 rec_s62_edge_15_13_choose_one: y_s62_i15_j13_k0 + y_s62_i15_j13_k1
   + y_s62_i15_j13_k2 = 1
 rec_s62_edge_16_17_choose_one: y_s62_i16_j17_k0 + y_s62_i16_j17_k1
   + y_s62_i16_j17_k2 = 1
 rec_s62_edge_17_38_choose_one: y_s62_i17_j38_k0 + y_s62_i17_j38_k1
   + y_s62_i17_j38_k2 = 1
 rec_s62_edge_18_20_choose_one: y_s62_i18_j20_k0 + y_s62_i18_j20_k1
   + y_s62_i18_j20_k2 = 1
 rec_s62_edge_19_45_choose_one: y_s62_i19_j45_k0 + y_s62_i19_j45_k1
   + y_s62_i19_j45_k2 = 1
 rec_s62_edge_20_16_choose_one: y_s62_i20_j16_k0 + y_s62_i20_j16_k1
   + y_s62_i20_j16_k2 = 1
 rec_s62_edge_21_24_choose_one: y_s62_i21_j24_k0 + y_s62_i21_j24_k1
   + y_s62_i21_j24_k2 = 1
 rec_s62_edge_22_21_choose_one: y_s62_i22_j21_k0 + y_s62_i22_j21_k1
   + y_s62_i22_j21_k2 = 1
 rec_s62_edge_23_46_choose_one: y_s62_i23_j46_k0 + y_s62_i23_j46_k1
   + y_s62_i23_j46_k2 = 1
 rec_s62_edge_24_23_choose_one: y_s62_i24_j23_k0 + y_s62_i24_j23_k1
   + y_s62_i24_j23_k2 = 1
 rec_s62_edge_25_31_choose_one: y_s62_i25_j31_k0 + y_s62_i25_j31_k1
   + y_s62_i25_j31_k2 = 1
 rec_s62_edge_26_27_choose_one: y_s62_i26_j27_k0 + y_s62_i26_j27_k1
   + y_s62_i26_j27_k2 = 1
 rec_s62_edge_27_28_choose_one: y_s62_i27_j28_k0 + y_s62_i27_j28_k1
   + y_s62_i27_j28_k2 = 1
 rec_s62_edge_28_25_choose_one: y_s62_i28_j25_k0 + y_s62_i28_j25_k1
   + y_s62_i28_j25_k2 = 1
 rec_s62_edge_29_7_choose_one: y_s62_i29_j7_k0 + y_s62_i29_j7_k1
   + y_s62_i29_j7_k2 = 1
 rec_s62_edge_30_29_choose_one: y_s62_i30_j29_k0 + y_s62_i30_j29_k1
   + y_s62_i30_j29_k2 = 1
 rec_s62_edge_31_30_choose_one: y_s62_i31_j30_k0 + y_s62_i31_j30_k1
   + y_s62_i31_j30_k2 = 1
 rec_s62_edge_32_40_choose_one: y_s62_i32_j40_k0 + y_s62_i32_j40_k1
   + y_s62_i32_j40_k2 = 1
 rec_s62_edge_33_35_choose_one: y_s62_i33_j35_k0 + y_s62_i33_j35_k1
   + y_s62_i33_j35_k2 = 1
 rec_s62_edge_34_33_choose_one: y_s62_i34_j33_k0 + y_s62_i34_j33_k1
   + y_s62_i34_j33_k2 = 1
 rec_s62_edge_35_32_choose_one: y_s62_i35_j32_k0 + y_s62_i35_j32_k1
   + y_s62_i35_j32_k2 = 1
 rec_s62_edge_36_49_choose_one: y_s62_i36_j49_k0 + y_s62_i36_j49_k1
   + y_s62_i36_j49_k2 = 1
 rec_s62_edge_37_39_choose_one: y_s62_i37_j39_k0 + y_s62_i37_j39_k1
   + y_s62_i37_j39_k2 = 1
 rec_s62_edge_38_15_choose_one: y_s62_i38_j15_k0 + y_s62_i38_j15_k1
   + y_s62_i38_j15_k2 = 1
 rec_s62_edge_39_53_choose_one: y_s62_i39_j53_k0 + y_s62_i39_j53_k1
   + y_s62_i39_j53_k2 = 1
 rec_s62_edge_40_37_choose_one: y_s62_i40_j37_k0 + y_s62_i40_j37_k1
   + y_s62_i40_j37_k2 = 1
 rec_s62_edge_41_4_choose_one: y_s62_i41_j4_k0 + y_s62_i41_j4_k1
   + y_s62_i41_j4_k2 = 1
 rec_s62_edge_42_44_choose_one: y_s62_i42_j44_k0 + y_s62_i42_j44_k1
   + y_s62_i42_j44_k2 = 1
 rec_s62_edge_43_19_choose_one: y_s62_i43_j19_k0 + y_s62_i43_j19_k1
   + y_s62_i43_j19_k2 = 1
 rec_s62_edge_44_50_choose_one: y_s62_i44_j50_k0 + y_s62_i44_j50_k1
   + y_s62_i44_j50_k2 = 1
 rec_s62_edge_45_18_choose_one: y_s62_i45_j18_k0 + y_s62_i45_j18_k1
   + y_s62_i45_j18_k2 = 1
 rec_s62_edge_46_42_choose_one: y_s62_i46_j42_k0 + y_s62_i46_j42_k1
   + y_s62_i46_j42_k2 = 1
 rec_s62_edge_47_41_choose_one: y_s62_i47_j41_k0 + y_s62_i47_j41_k1
   + y_s62_i47_j41_k2 = 1
 rec_s62_edge_48_51_choose_one: y_s62_i48_j51_k0 + y_s62_i48_j51_k1
   + y_s62_i48_j51_k2 = 1
 rec_s62_edge_49_26_choose_one: y_s62_i49_j26_k0 + y_s62_i49_j26_k1
   + y_s62_i49_j26_k2 = 1
 rec_s62_edge_50_48_choose_one: y_s62_i50_j48_k0 + y_s62_i50_j48_k1
   + y_s62_i50_j48_k2 = 1
 rec_s62_edge_51_36_choose_one: y_s62_i51_j36_k0 + y_s62_i51_j36_k1
   + y_s62_i51_j36_k2 = 1
 rec_s62_edge_52_47_choose_one: y_s62_i52_j47_k0 + y_s62_i52_j47_k1
   + y_s62_i52_j47_k2 = 1
 rec_s62_edge_53_43_choose_one: y_s62_i53_j43_k0 + y_s62_i53_j43_k1
   + y_s62_i53_j43_k2 = 1
 rec_s78_edge_0_2_choose_one: y_s78_i0_j2_k0 + y_s78_i0_j2_k1
   + y_s78_i0_j2_k2 = 1
 rec_s78_edge_1_22_choose_one: y_s78_i1_j22_k0 + y_s78_i1_j22_k1
   + y_s78_i1_j22_k2 = 1
 rec_s78_edge_2_1_choose_one: y_s78_i2_j1_k0 + y_s78_i2_j1_k1
   + y_s78_i2_j1_k2 = 1
 rec_s78_edge_3_9_choose_one: y_s78_i3_j9_k0 + y_s78_i3_j9_k1
   + y_s78_i3_j9_k2 = 1
 rec_s78_edge_4_34_choose_one: y_s78_i4_j34_k0 + y_s78_i4_j34_k1
   + y_s78_i4_j34_k2 = 1
 rec_s78_edge_5_0_choose_one: y_s78_i5_j0_k0 + y_s78_i5_j0_k1
   + y_s78_i5_j0_k2 = 1
 rec_s78_edge_6_52_choose_one: y_s78_i6_j52_k0 + y_s78_i6_j52_k1
   + y_s78_i6_j52_k2 = 1
 rec_s78_edge_7_3_choose_one: y_s78_i7_j3_k0 + y_s78_i7_j3_k1
   + y_s78_i7_j3_k2 = 1
 rec_s78_edge_8_10_choose_one: y_s78_i8_j10_k0 + y_s78_i8_j10_k1
   + y_s78_i8_j10_k2 = 1
 rec_s78_edge_9_6_choose_one: y_s78_i9_j6_k0 + y_s78_i9_j6_k1
   + y_s78_i9_j6_k2 = 1
 rec_s78_edge_10_5_choose_one: y_s78_i10_j5_k0 + y_s78_i10_j5_k1
   + y_s78_i10_j5_k2 = 1
 rec_s78_edge_11_8_choose_one: y_s78_i11_j8_k0 + y_s78_i11_j8_k1
   + y_s78_i11_j8_k2 = 1
 rec_s78_edge_12_11_choose_one: y_s78_i12_j11_k0 + y_s78_i12_j11_k1
   + y_s78_i12_j11_k2 = 1
 rec_s78_edge_13_14_choose_one: y_s78_i13_j14_k0 + y_s78_i13_j14_k1
   + y_s78_i13_j14_k2 = 1
 rec_s78_edge_14_12_choose_one: y_s78_i14_j12_k0 + y_s78_i14_j12_k1
   + y_s78_i14_j12_k2 = 1
 rec_s78_edge_15_13_choose_one: y_s78_i15_j13_k0 + y_s78_i15_j13_k1
   + y_s78_i15_j13_k2 = 1
 rec_s78_edge_16_17_choose_one: y_s78_i16_j17_k0 + y_s78_i16_j17_k1
   + y_s78_i16_j17_k2 = 1
 rec_s78_edge_17_38_choose_one: y_s78_i17_j38_k0 + y_s78_i17_j38_k1
   + y_s78_i17_j38_k2 = 1
 rec_s78_edge_18_20_choose_one: y_s78_i18_j20_k0 + y_s78_i18_j20_k1
   + y_s78_i18_j20_k2 = 1
 rec_s78_edge_19_45_choose_one: y_s78_i19_j45_k0 + y_s78_i19_j45_k1
   + y_s78_i19_j45_k2 = 1
 rec_s78_edge_20_16_choose_one: y_s78_i20_j16_k0 + y_s78_i20_j16_k1
   + y_s78_i20_j16_k2 = 1
 rec_s78_edge_21_24_choose_one: y_s78_i21_j24_k0 + y_s78_i21_j24_k1
   + y_s78_i21_j24_k2 = 1
 rec_s78_edge_22_21_choose_one: y_s78_i22_j21_k0 + y_s78_i22_j21_k1
   + y_s78_i22_j21_k2 = 1
 rec_s78_edge_23_46_choose_one: y_s78_i23_j46_k0 + y_s78_i23_j46_k1
   + y_s78_i23_j46_k2 = 1
 rec_s78_edge_24_23_choose_one: y_s78_i24_j23_k0 + y_s78_i24_j23_k1
   + y_s78_i24_j23_k2 = 1
 rec_s78_edge_25_31_choose_one: y_s78_i25_j31_k0 + y_s78_i25_j31_k1
   + y_s78_i25_j31_k2 = 1
 rec_s78_edge_26_27_choose_one: y_s78_i26_j27_k0 + y_s78_i26_j27_k1
   + y_s78_i26_j27_k2 = 1
 rec_s78_edge_27_28_choose_one: y_s78_i27_j28_k0 + y_s78_i27_j28_k1
   + y_s78_i27_j28_k2 = 1
 rec_s78_edge_28_25_choose_one: y_s78_i28_j25_k0 + y_s78_i28_j25_k1
   + y_s78_i28_j25_k2 = 1
 rec_s78_edge_29_7_choose_one: y_s78_i29_j7_k0 + y_s78_i29_j7_k1
   + y_s78_i29_j7_k2 = 1
 rec_s78_edge_30_29_choose_one: y_s78_i30_j29_k0 + y_s78_i30_j29_k1
   + y_s78_i30_j29_k2 = 1
 rec_s78_edge_31_30_choose_one: y_s78_i31_j30_k0 + y_s78_i31_j30_k1
   + y_s78_i31_j30_k2 = 1
 rec_s78_edge_32_40_choose_one: y_s78_i32_j40_k0 + y_s78_i32_j40_k1
   + y_s78_i32_j40_k2 = 1
 rec_s78_edge_33_35_choose_one: y_s78_i33_j35_k0 + y_s78_i33_j35_k1
   + y_s78_i33_j35_k2 = 1
 rec_s78_edge_34_33_choose_one: y_s78_i34_j33_k0 + y_s78_i34_j33_k1
   + y_s78_i34_j33_k2 = 1
 rec_s78_edge_35_32_choose_one: y_s78_i35_j32_k0 + y_s78_i35_j32_k1
   + y_s78_i35_j32_k2 = 1
 rec_s78_edge_36_49_choose_one: y_s78_i36_j49_k0 + y_s78_i36_j49_k1
   + y_s78_i36_j49_k2 = 1
 rec_s78_edge_37_39_choose_one: y_s78_i37_j39_k0 + y_s78_i37_j39_k1
   + y_s78_i37_j39_k2 = 1
 rec_s78_edge_38_15_choose_one: y_s78_i38_j15_k0 + y_s78_i38_j15_k1
   + y_s78_i38_j15_k2 = 1
 rec_s78_edge_39_53_choose_one: y_s78_i39_j53_k0 + y_s78_i39_j53_k1
   + y_s78_i39_j53_k2 = 1
 rec_s78_edge_40_37_choose_one: y_s78_i40_j37_k0 + y_s78_i40_j37_k1
   + y_s78_i40_j37_k2 = 1
 rec_s78_edge_41_4_choose_one: y_s78_i41_j4_k0 + y_s78_i41_j4_k1
   + y_s78_i41_j4_k2 = 1
 rec_s78_edge_42_44_choose_one: y_s78_i42_j44_k0 + y_s78_i42_j44_k1
   + y_s78_i42_j44_k2 = 1
 rec_s78_edge_43_19_choose_one: y_s78_i43_j19_k0 + y_s78_i43_j19_k1
   + y_s78_i43_j19_k2 = 1
 rec_s78_edge_44_50_choose_one: y_s78_i44_j50_k0 + y_s78_i44_j50_k1
   + y_s78_i44_j50_k2 = 1
 rec_s78_edge_45_18_choose_one: y_s78_i45_j18_k0 + y_s78_i45_j18_k1
   + y_s78_i45_j18_k2 = 1
 rec_s78_edge_46_42_choose_one: y_s78_i46_j42_k0 + y_s78_i46_j42_k1
   + y_s78_i46_j42_k2 = 1
 rec_s78_edge_47_41_choose_one: y_s78_i47_j41_k0 + y_s78_i47_j41_k1
   + y_s78_i47_j41_k2 = 1
 rec_s78_edge_48_51_choose_one: y_s78_i48_j51_k0 + y_s78_i48_j51_k1
   + y_s78_i48_j51_k2 = 1
 rec_s78_edge_49_26_choose_one: y_s78_i49_j26_k0 + y_s78_i49_j26_k1
   + y_s78_i49_j26_k2 = 1
 rec_s78_edge_50_48_choose_one: y_s78_i50_j48_k0 + y_s78_i50_j48_k1
   + y_s78_i50_j48_k2 = 1
 rec_s78_edge_51_36_choose_one: y_s78_i51_j36_k0 + y_s78_i51_j36_k1
   + y_s78_i51_j36_k2 = 1
 rec_s78_edge_52_47_choose_one: y_s78_i52_j47_k0 + y_s78_i52_j47_k1
   + y_s78_i52_j47_k2 = 1
 rec_s78_edge_53_43_choose_one: y_s78_i53_j43_k0 + y_s78_i53_j43_k1
   + y_s78_i53_j43_k2 = 1
 rec_s96_edge_0_2_choose_one: y_s96_i0_j2_k0 + y_s96_i0_j2_k1
   + y_s96_i0_j2_k2 = 1
 rec_s96_edge_1_22_choose_one: y_s96_i1_j22_k0 + y_s96_i1_j22_k1
   + y_s96_i1_j22_k2 = 1
 rec_s96_edge_2_1_choose_one: y_s96_i2_j1_k0 + y_s96_i2_j1_k1
   + y_s96_i2_j1_k2 = 1
 rec_s96_edge_3_9_choose_one: y_s96_i3_j9_k0 + y_s96_i3_j9_k1
   + y_s96_i3_j9_k2 = 1
 rec_s96_edge_4_34_choose_one: y_s96_i4_j34_k0 + y_s96_i4_j34_k1
   + y_s96_i4_j34_k2 = 1
 rec_s96_edge_5_0_choose_one: y_s96_i5_j0_k0 + y_s96_i5_j0_k1
   + y_s96_i5_j0_k2 = 1
 rec_s96_edge_6_52_choose_one: y_s96_i6_j52_k0 + y_s96_i6_j52_k1
   + y_s96_i6_j52_k2 = 1
 rec_s96_edge_7_3_choose_one: y_s96_i7_j3_k0 + y_s96_i7_j3_k1
   + y_s96_i7_j3_k2 = 1
 rec_s96_edge_8_10_choose_one: y_s96_i8_j10_k0 + y_s96_i8_j10_k1
   + y_s96_i8_j10_k2 = 1
 rec_s96_edge_9_6_choose_one: y_s96_i9_j6_k0 + y_s96_i9_j6_k1
   + y_s96_i9_j6_k2 = 1
 rec_s96_edge_10_5_choose_one: y_s96_i10_j5_k0 + y_s96_i10_j5_k1
   + y_s96_i10_j5_k2 = 1
 rec_s96_edge_11_8_choose_one: y_s96_i11_j8_k0 + y_s96_i11_j8_k1
   + y_s96_i11_j8_k2 = 1
 rec_s96_edge_12_11_choose_one: y_s96_i12_j11_k0 + y_s96_i12_j11_k1
   + y_s96_i12_j11_k2 = 1
 rec_s96_edge_13_14_choose_one: y_s96_i13_j14_k0 + y_s96_i13_j14_k1
   + y_s96_i13_j14_k2 = 1
 rec_s96_edge_14_12_choose_one: y_s96_i14_j12_k0 + y_s96_i14_j12_k1
   + y_s96_i14_j12_k2 = 1
 rec_s96_edge_15_13_choose_one: y_s96_i15_j13_k0 + y_s96_i15_j13_k1
   + y_s96_i15_j13_k2 = 1
 rec_s96_edge_16_17_choose_one: y_s96_i16_j17_k0 + y_s96_i16_j17_k1
   + y_s96_i16_j17_k2 = 1
 rec_s96_edge_17_38_choose_one: y_s96_i17_j38_k0 + y_s96_i17_j38_k1
   + y_s96_i17_j38_k2 = 1
 rec_s96_edge_18_20_choose_one: y_s96_i18_j20_k0 + y_s96_i18_j20_k1
   + y_s96_i18_j20_k2 = 1
 rec_s96_edge_19_45_choose_one: y_s96_i19_j45_k0 + y_s96_i19_j45_k1
   + y_s96_i19_j45_k2 = 1
 rec_s96_edge_20_16_choose_one: y_s96_i20_j16_k0 + y_s96_i20_j16_k1
   + y_s96_i20_j16_k2 = 1
 rec_s96_edge_21_24_choose_one: y_s96_i21_j24_k0 + y_s96_i21_j24_k1
   + y_s96_i21_j24_k2 = 1
 rec_s96_edge_22_21_choose_one: y_s96_i22_j21_k0 + y_s96_i22_j21_k1
   + y_s96_i22_j21_k2 = 1
 rec_s96_edge_23_46_choose_one: y_s96_i23_j46_k0 + y_s96_i23_j46_k1
   + y_s96_i23_j46_k2 = 1
 rec_s96_edge_24_23_choose_one: y_s96_i24_j23_k0 + y_s96_i24_j23_k1
   + y_s96_i24_j23_k2 = 1
 rec_s96_edge_25_31_choose_one: y_s96_i25_j31_k0 + y_s96_i25_j31_k1
   + y_s96_i25_j31_k2 = 1
 rec_s96_edge_26_27_choose_one: y_s96_i26_j27_k0 + y_s96_i26_j27_k1
   + y_s96_i26_j27_k2 = 1
 rec_s96_edge_27_28_choose_one: y_s96_i27_j28_k0 + y_s96_i27_j28_k1
   + y_s96_i27_j28_k2 = 1
 rec_s96_edge_28_25_choose_one: y_s96_i28_j25_k0 + y_s96_i28_j25_k1
   + y_s96_i28_j25_k2 = 1
 rec_s96_edge_29_7_choose_one: y_s96_i29_j7_k0 + y_s96_i29_j7_k1
   + y_s96_i29_j7_k2 = 1
 rec_s96_edge_30_29_choose_one: y_s96_i30_j29_k0 + y_s96_i30_j29_k1
   + y_s96_i30_j29_k2 = 1
 rec_s96_edge_31_30_choose_one: y_s96_i31_j30_k0 + y_s96_i31_j30_k1
   + y_s96_i31_j30_k2 = 1
 rec_s96_edge_32_40_choose_one: y_s96_i32_j40_k0 + y_s96_i32_j40_k1
   + y_s96_i32_j40_k2 = 1
 rec_s96_edge_33_35_choose_one: y_s96_i33_j35_k0 + y_s96_i33_j35_k1
   + y_s96_i33_j35_k2 = 1
 rec_s96_edge_34_33_choose_one: y_s96_i34_j33_k0 + y_s96_i34_j33_k1
   + y_s96_i34_j33_k2 = 1
 rec_s96_edge_35_32_choose_one: y_s96_i35_j32_k0 + y_s96_i35_j32_k1
   + y_s96_i35_j32_k2 = 1
 rec_s96_edge_36_49_choose_one: y_s96_i36_j49_k0 + y_s96_i36_j49_k1
   + y_s96_i36_j49_k2 = 1
 rec_s96_edge_37_39_choose_one: y_s96_i37_j39_k0 + y_s96_i37_j39_k1
   + y_s96_i37_j39_k2 = 1
 rec_s96_edge_38_15_choose_one: y_s96_i38_j15_k0 + y_s96_i38_j15_k1
   + y_s96_i38_j15_k2 = 1
 rec_s96_edge_39_53_choose_one: y_s96_i39_j53_k0 + y_s96_i39_j53_k1
   + y_s96_i39_j53_k2 = 1
 rec_s96_edge_40_37_choose_one: y_s96_i40_j37_k0 + y_s96_i40_j37_k1
   + y_s96_i40_j37_k2 = 1
 rec_s96_edge_41_4_choose_one: y_s96_i41_j4_k0 + y_s96_i41_j4_k1
   + y_s96_i41_j4_k2 = 1
 rec_s96_edge_42_44_choose_one: y_s96_i42_j44_k0 + y_s96_i42_j44_k1
   + y_s96_i42_j44_k2 = 1
 rec_s96_edge_43_19_choose_one: y_s96_i43_j19_k0 + y_s96_i43_j19_k1
   + y_s96_i43_j19_k2 = 1
 rec_s96_edge_44_50_choose_one: y_s96_i44_j50_k0 + y_s96_i44_j50_k1
   + y_s96_i44_j50_k2 = 1
 rec_s96_edge_45_18_choose_one: y_s96_i45_j18_k0 + y_s96_i45_j18_k1
   + y_s96_i45_j18_k2 = 1
 rec_s96_edge_46_42_choose_one: y_s96_i46_j42_k0 + y_s96_i46_j42_k1
   + y_s96_i46_j42_k2 = 1
 rec_s96_edge_47_41_choose_one: y_s96_i47_j41_k0 + y_s96_i47_j41_k1
   + y_s96_i47_j41_k2 = 1
 rec_s96_edge_48_51_choose_one: y_s96_i48_j51_k0 + y_s96_i48_j51_k1
   + y_s96_i48_j51_k2 = 1
 rec_s96_edge_49_26_choose_one: y_s96_i49_j26_k0 + y_s96_i49_j26_k1
   + y_s96_i49_j26_k2 = 1
 rec_s96_edge_50_48_choose_one: y_s96_i50_j48_k0 + y_s96_i50_j48_k1
   + y_s96_i50_j48_k2 = 1
 rec_s96_edge_51_36_choose_one: y_s96_i51_j36_k0 + y_s96_i51_j36_k1
   + y_s96_i51_j36_k2 = 1
 rec_s96_edge_52_47_choose_one: y_s96_i52_j47_k0 + y_s96_i52_j47_k1
   + y_s96_i52_j47_k2 = 1
 rec_s96_edge_53_43_choose_one: y_s96_i53_j43_k0 + y_s96_i53_j43_k1
   + y_s96_i53_j43_k2 = 1
 rec_s64_edge_0_2_choose_one: y_s64_i0_j2_k0 + y_s64_i0_j2_k1
   + y_s64_i0_j2_k2 = 1
 rec_s64_edge_1_22_choose_one: y_s64_i1_j22_k0 + y_s64_i1_j22_k1
   + y_s64_i1_j22_k2 = 1
 rec_s64_edge_2_1_choose_one: y_s64_i2_j1_k0 + y_s64_i2_j1_k1
   + y_s64_i2_j1_k2 = 1
 rec_s64_edge_3_9_choose_one: y_s64_i3_j9_k0 + y_s64_i3_j9_k1
   + y_s64_i3_j9_k2 = 1
 rec_s64_edge_4_34_choose_one: y_s64_i4_j34_k0 + y_s64_i4_j34_k1
   + y_s64_i4_j34_k2 = 1
 rec_s64_edge_5_0_choose_one: y_s64_i5_j0_k0 + y_s64_i5_j0_k1
   + y_s64_i5_j0_k2 = 1
 rec_s64_edge_6_52_choose_one: y_s64_i6_j52_k0 + y_s64_i6_j52_k1
   + y_s64_i6_j52_k2 = 1
 rec_s64_edge_7_3_choose_one: y_s64_i7_j3_k0 + y_s64_i7_j3_k1
   + y_s64_i7_j3_k2 = 1
 rec_s64_edge_8_10_choose_one: y_s64_i8_j10_k0 + y_s64_i8_j10_k1
   + y_s64_i8_j10_k2 = 1
 rec_s64_edge_9_6_choose_one: y_s64_i9_j6_k0 + y_s64_i9_j6_k1
   + y_s64_i9_j6_k2 = 1
 rec_s64_edge_10_5_choose_one: y_s64_i10_j5_k0 + y_s64_i10_j5_k1
   + y_s64_i10_j5_k2 = 1
 rec_s64_edge_11_8_choose_one: y_s64_i11_j8_k0 + y_s64_i11_j8_k1
   + y_s64_i11_j8_k2 = 1
 rec_s64_edge_12_11_choose_one: y_s64_i12_j11_k0 + y_s64_i12_j11_k1
   + y_s64_i12_j11_k2 = 1
 rec_s64_edge_13_14_choose_one: y_s64_i13_j14_k0 + y_s64_i13_j14_k1
   + y_s64_i13_j14_k2 = 1
 rec_s64_edge_14_12_choose_one: y_s64_i14_j12_k0 + y_s64_i14_j12_k1
   + y_s64_i14_j12_k2 = 1
 rec_s64_edge_15_13_choose_one: y_s64_i15_j13_k0 + y_s64_i15_j13_k1
   + y_s64_i15_j13_k2 = 1
 rec_s64_edge_16_17_choose_one: y_s64_i16_j17_k0 + y_s64_i16_j17_k1
   + y_s64_i16_j17_k2 = 1
 rec_s64_edge_17_38_choose_one: y_s64_i17_j38_k0 + y_s64_i17_j38_k1
   + y_s64_i17_j38_k2 = 1
 rec_s64_edge_18_20_choose_one: y_s64_i18_j20_k0 + y_s64_i18_j20_k1
   + y_s64_i18_j20_k2 = 1
 rec_s64_edge_19_45_choose_one: y_s64_i19_j45_k0 + y_s64_i19_j45_k1
   + y_s64_i19_j45_k2 = 1
 rec_s64_edge_20_16_choose_one: y_s64_i20_j16_k0 + y_s64_i20_j16_k1
   + y_s64_i20_j16_k2 = 1
 rec_s64_edge_21_24_choose_one: y_s64_i21_j24_k0 + y_s64_i21_j24_k1
   + y_s64_i21_j24_k2 = 1
 rec_s64_edge_22_21_choose_one: y_s64_i22_j21_k0 + y_s64_i22_j21_k1
   + y_s64_i22_j21_k2 = 1
 rec_s64_edge_23_46_choose_one: y_s64_i23_j46_k0 + y_s64_i23_j46_k1
   + y_s64_i23_j46_k2 = 1
 rec_s64_edge_24_23_choose_one: y_s64_i24_j23_k0 + y_s64_i24_j23_k1
   + y_s64_i24_j23_k2 = 1
 rec_s64_edge_25_31_choose_one: y_s64_i25_j31_k0 + y_s64_i25_j31_k1
   + y_s64_i25_j31_k2 = 1
 rec_s64_edge_26_27_choose_one: y_s64_i26_j27_k0 + y_s64_i26_j27_k1
   + y_s64_i26_j27_k2 = 1
 rec_s64_edge_27_28_choose_one: y_s64_i27_j28_k0 + y_s64_i27_j28_k1
   + y_s64_i27_j28_k2 = 1
 rec_s64_edge_28_25_choose_one: y_s64_i28_j25_k0 + y_s64_i28_j25_k1
   + y_s64_i28_j25_k2 = 1
 rec_s64_edge_29_7_choose_one: y_s64_i29_j7_k0 + y_s64_i29_j7_k1
   + y_s64_i29_j7_k2 = 1
 rec_s64_edge_30_29_choose_one: y_s64_i30_j29_k0 + y_s64_i30_j29_k1
   + y_s64_i30_j29_k2 = 1
 rec_s64_edge_31_30_choose_one: y_s64_i31_j30_k0 + y_s64_i31_j30_k1
   + y_s64_i31_j30_k2 = 1
 rec_s64_edge_32_40_choose_one: y_s64_i32_j40_k0 + y_s64_i32_j40_k1
   + y_s64_i32_j40_k2 = 1
 rec_s64_edge_33_35_choose_one: y_s64_i33_j35_k0 + y_s64_i33_j35_k1
   + y_s64_i33_j35_k2 = 1
 rec_s64_edge_34_33_choose_one: y_s64_i34_j33_k0 + y_s64_i34_j33_k1
   + y_s64_i34_j33_k2 = 1
 rec_s64_edge_35_32_choose_one: y_s64_i35_j32_k0 + y_s64_i35_j32_k1
   + y_s64_i35_j32_k2 = 1
 rec_s64_edge_36_49_choose_one: y_s64_i36_j49_k0 + y_s64_i36_j49_k1
   + y_s64_i36_j49_k2 = 1
 rec_s64_edge_37_39_choose_one: y_s64_i37_j39_k0 + y_s64_i37_j39_k1
   + y_s64_i37_j39_k2 = 1
 rec_s64_edge_38_15_choose_one: y_s64_i38_j15_k0 + y_s64_i38_j15_k1
   + y_s64_i38_j15_k2 = 1
 rec_s64_edge_39_53_choose_one: y_s64_i39_j53_k0 + y_s64_i39_j53_k1
   + y_s64_i39_j53_k2 = 1
 rec_s64_edge_40_37_choose_one: y_s64_i40_j37_k0 + y_s64_i40_j37_k1
   + y_s64_i40_j37_k2 = 1
 rec_s64_edge_41_4_choose_one: y_s64_i41_j4_k0 + y_s64_i41_j4_k1
   + y_s64_i41_j4_k2 = 1
 rec_s64_edge_42_44_choose_one: y_s64_i42_j44_k0 + y_s64_i42_j44_k1
   + y_s64_i42_j44_k2 = 1
 rec_s64_edge_43_19_choose_one: y_s64_i43_j19_k0 + y_s64_i43_j19_k1
   + y_s64_i43_j19_k2 = 1
 rec_s64_edge_44_50_choose_one: y_s64_i44_j50_k0 + y_s64_i44_j50_k1
   + y_s64_i44_j50_k2 = 1
 rec_s64_edge_45_18_choose_one: y_s64_i45_j18_k0 + y_s64_i45_j18_k1
   + y_s64_i45_j18_k2 = 1
 rec_s64_edge_46_42_choose_one: y_s64_i46_j42_k0 + y_s64_i46_j42_k1
   + y_s64_i46_j42_k2 = 1
 rec_s64_edge_47_41_choose_one: y_s64_i47_j41_k0 + y_s64_i47_j41_k1
   + y_s64_i47_j41_k2 = 1
 rec_s64_edge_48_51_choose_one: y_s64_i48_j51_k0 + y_s64_i48_j51_k1
   + y_s64_i48_j51_k2 = 1
 rec_s64_edge_49_26_choose_one: y_s64_i49_j26_k0 + y_s64_i49_j26_k1
   + y_s64_i49_j26_k2 = 1
 rec_s64_edge_50_48_choose_one: y_s64_i50_j48_k0 + y_s64_i50_j48_k1
   + y_s64_i50_j48_k2 = 1
 rec_s64_edge_51_36_choose_one: y_s64_i51_j36_k0 + y_s64_i51_j36_k1
   + y_s64_i51_j36_k2 = 1
 rec_s64_edge_52_47_choose_one: y_s64_i52_j47_k0 + y_s64_i52_j47_k1
   + y_s64_i52_j47_k2 = 1
 rec_s64_edge_53_43_choose_one: y_s64_i53_j43_k0 + y_s64_i53_j43_k1
   + y_s64_i53_j43_k2 = 1
 rec_s20_edge_0_2_choose_one: y_s20_i0_j2_k0 + y_s20_i0_j2_k1
   + y_s20_i0_j2_k2 = 1
 rec_s20_edge_1_22_choose_one: y_s20_i1_j22_k0 + y_s20_i1_j22_k1
   + y_s20_i1_j22_k2 = 1
 rec_s20_edge_2_1_choose_one: y_s20_i2_j1_k0 + y_s20_i2_j1_k1
   + y_s20_i2_j1_k2 = 1
 rec_s20_edge_3_9_choose_one: y_s20_i3_j9_k0 + y_s20_i3_j9_k1
   + y_s20_i3_j9_k2 = 1
 rec_s20_edge_4_34_choose_one: y_s20_i4_j34_k0 + y_s20_i4_j34_k1
   + y_s20_i4_j34_k2 = 1
 rec_s20_edge_5_0_choose_one: y_s20_i5_j0_k0 + y_s20_i5_j0_k1
   + y_s20_i5_j0_k2 = 1
 rec_s20_edge_6_52_choose_one: y_s20_i6_j52_k0 + y_s20_i6_j52_k1
   + y_s20_i6_j52_k2 = 1
 rec_s20_edge_7_3_choose_one: y_s20_i7_j3_k0 + y_s20_i7_j3_k1
   + y_s20_i7_j3_k2 = 1
 rec_s20_edge_8_10_choose_one: y_s20_i8_j10_k0 + y_s20_i8_j10_k1
   + y_s20_i8_j10_k2 = 1
 rec_s20_edge_9_6_choose_one: y_s20_i9_j6_k0 + y_s20_i9_j6_k1
   + y_s20_i9_j6_k2 = 1
 rec_s20_edge_10_5_choose_one: y_s20_i10_j5_k0 + y_s20_i10_j5_k1
   + y_s20_i10_j5_k2 = 1
 rec_s20_edge_11_8_choose_one: y_s20_i11_j8_k0 + y_s20_i11_j8_k1
   + y_s20_i11_j8_k2 = 1
 rec_s20_edge_12_11_choose_one: y_s20_i12_j11_k0 + y_s20_i12_j11_k1
   + y_s20_i12_j11_k2 = 1
 rec_s20_edge_13_14_choose_one: y_s20_i13_j14_k0 + y_s20_i13_j14_k1
   + y_s20_i13_j14_k2 = 1
 rec_s20_edge_14_12_choose_one: y_s20_i14_j12_k0 + y_s20_i14_j12_k1
   + y_s20_i14_j12_k2 = 1
 rec_s20_edge_15_13_choose_one: y_s20_i15_j13_k0 + y_s20_i15_j13_k1
   + y_s20_i15_j13_k2 = 1
 rec_s20_edge_16_17_choose_one: y_s20_i16_j17_k0 + y_s20_i16_j17_k1
   + y_s20_i16_j17_k2 = 1
 rec_s20_edge_17_38_choose_one: y_s20_i17_j38_k0 + y_s20_i17_j38_k1
   + y_s20_i17_j38_k2 = 1
 rec_s20_edge_18_20_choose_one: y_s20_i18_j20_k0 + y_s20_i18_j20_k1
   + y_s20_i18_j20_k2 = 1
 rec_s20_edge_19_45_choose_one: y_s20_i19_j45_k0 + y_s20_i19_j45_k1
   + y_s20_i19_j45_k2 = 1
 rec_s20_edge_20_16_choose_one: y_s20_i20_j16_k0 + y_s20_i20_j16_k1
   + y_s20_i20_j16_k2 = 1
 rec_s20_edge_21_24_choose_one: y_s20_i21_j24_k0 + y_s20_i21_j24_k1
   + y_s20_i21_j24_k2 = 1
 rec_s20_edge_22_21_choose_one: y_s20_i22_j21_k0 + y_s20_i22_j21_k1
   + y_s20_i22_j21_k2 = 1
 rec_s20_edge_23_46_choose_one: y_s20_i23_j46_k0 + y_s20_i23_j46_k1
   + y_s20_i23_j46_k2 = 1
 rec_s20_edge_24_23_choose_one: y_s20_i24_j23_k0 + y_s20_i24_j23_k1
   + y_s20_i24_j23_k2 = 1
 rec_s20_edge_25_31_choose_one: y_s20_i25_j31_k0 + y_s20_i25_j31_k1
   + y_s20_i25_j31_k2 = 1
 rec_s20_edge_26_27_choose_one: y_s20_i26_j27_k0 + y_s20_i26_j27_k1
   + y_s20_i26_j27_k2 = 1
 rec_s20_edge_27_28_choose_one: y_s20_i27_j28_k0 + y_s20_i27_j28_k1
   + y_s20_i27_j28_k2 = 1
 rec_s20_edge_28_25_choose_one: y_s20_i28_j25_k0 + y_s20_i28_j25_k1
   + y_s20_i28_j25_k2 = 1
 rec_s20_edge_29_7_choose_one: y_s20_i29_j7_k0 + y_s20_i29_j7_k1
   + y_s20_i29_j7_k2 = 1
 rec_s20_edge_30_29_choose_one: y_s20_i30_j29_k0 + y_s20_i30_j29_k1
   + y_s20_i30_j29_k2 = 1
 rec_s20_edge_31_30_choose_one: y_s20_i31_j30_k0 + y_s20_i31_j30_k1
   + y_s20_i31_j30_k2 = 1
 rec_s20_edge_32_40_choose_one: y_s20_i32_j40_k0 + y_s20_i32_j40_k1
   + y_s20_i32_j40_k2 = 1
 rec_s20_edge_33_35_choose_one: y_s20_i33_j35_k0 + y_s20_i33_j35_k1
   + y_s20_i33_j35_k2 = 1
 rec_s20_edge_34_33_choose_one: y_s20_i34_j33_k0 + y_s20_i34_j33_k1
   + y_s20_i34_j33_k2 = 1
 rec_s20_edge_35_32_choose_one: y_s20_i35_j32_k0 + y_s20_i35_j32_k1
   + y_s20_i35_j32_k2 = 1
 rec_s20_edge_36_49_choose_one: y_s20_i36_j49_k0 + y_s20_i36_j49_k1
   + y_s20_i36_j49_k2 = 1
 rec_s20_edge_37_39_choose_one: y_s20_i37_j39_k0 + y_s20_i37_j39_k1
   + y_s20_i37_j39_k2 = 1
 rec_s20_edge_38_15_choose_one: y_s20_i38_j15_k0 + y_s20_i38_j15_k1
   + y_s20_i38_j15_k2 = 1
 rec_s20_edge_39_53_choose_one: y_s20_i39_j53_k0 + y_s20_i39_j53_k1
   + y_s20_i39_j53_k2 = 1
 rec_s20_edge_40_37_choose_one: y_s20_i40_j37_k0 + y_s20_i40_j37_k1
   + y_s20_i40_j37_k2 = 1
 rec_s20_edge_41_4_choose_one: y_s20_i41_j4_k0 + y_s20_i41_j4_k1
   + y_s20_i41_j4_k2 = 1
 rec_s20_edge_42_44_choose_one: y_s20_i42_j44_k0 + y_s20_i42_j44_k1
   + y_s20_i42_j44_k2 = 1
 rec_s20_edge_43_19_choose_one: y_s20_i43_j19_k0 + y_s20_i43_j19_k1
   + y_s20_i43_j19_k2 = 1
 rec_s20_edge_44_50_choose_one: y_s20_i44_j50_k0 + y_s20_i44_j50_k1
   + y_s20_i44_j50_k2 = 1
 rec_s20_edge_45_18_choose_one: y_s20_i45_j18_k0 + y_s20_i45_j18_k1
   + y_s20_i45_j18_k2 = 1
 rec_s20_edge_46_42_choose_one: y_s20_i46_j42_k0 + y_s20_i46_j42_k1
   + y_s20_i46_j42_k2 = 1
 rec_s20_edge_47_41_choose_one: y_s20_i47_j41_k0 + y_s20_i47_j41_k1
   + y_s20_i47_j41_k2 = 1
 rec_s20_edge_48_51_choose_one: y_s20_i48_j51_k0 + y_s20_i48_j51_k1
   + y_s20_i48_j51_k2 = 1
 rec_s20_edge_49_26_choose_one: y_s20_i49_j26_k0 + y_s20_i49_j26_k1
   + y_s20_i49_j26_k2 = 1
 rec_s20_edge_50_48_choose_one: y_s20_i50_j48_k0 + y_s20_i50_j48_k1
   + y_s20_i50_j48_k2 = 1
 rec_s20_edge_51_36_choose_one: y_s20_i51_j36_k0 + y_s20_i51_j36_k1
   + y_s20_i51_j36_k2 = 1
 rec_s20_edge_52_47_choose_one: y_s20_i52_j47_k0 + y_s20_i52_j47_k1
   + y_s20_i52_j47_k2 = 1
 rec_s20_edge_53_43_choose_one: y_s20_i53_j43_k0 + y_s20_i53_j43_k1
   + y_s20_i53_j43_k2 = 1
 rec_s51_edge_0_2_choose_one: y_s51_i0_j2_k0 + y_s51_i0_j2_k1
   + y_s51_i0_j2_k2 = 1
 rec_s51_edge_1_22_choose_one: y_s51_i1_j22_k0 + y_s51_i1_j22_k1
   + y_s51_i1_j22_k2 = 1
 rec_s51_edge_2_1_choose_one: y_s51_i2_j1_k0 + y_s51_i2_j1_k1
   + y_s51_i2_j1_k2 = 1
 rec_s51_edge_3_9_choose_one: y_s51_i3_j9_k0 + y_s51_i3_j9_k1
   + y_s51_i3_j9_k2 = 1
 rec_s51_edge_4_34_choose_one: y_s51_i4_j34_k0 + y_s51_i4_j34_k1
   + y_s51_i4_j34_k2 = 1
 rec_s51_edge_5_0_choose_one: y_s51_i5_j0_k0 + y_s51_i5_j0_k1
   + y_s51_i5_j0_k2 = 1
 rec_s51_edge_6_52_choose_one: y_s51_i6_j52_k0 + y_s51_i6_j52_k1
   + y_s51_i6_j52_k2 = 1
 rec_s51_edge_7_3_choose_one: y_s51_i7_j3_k0 + y_s51_i7_j3_k1
   + y_s51_i7_j3_k2 = 1
 rec_s51_edge_8_10_choose_one: y_s51_i8_j10_k0 + y_s51_i8_j10_k1
   + y_s51_i8_j10_k2 = 1
 rec_s51_edge_9_6_choose_one: y_s51_i9_j6_k0 + y_s51_i9_j6_k1
   + y_s51_i9_j6_k2 = 1
 rec_s51_edge_10_5_choose_one: y_s51_i10_j5_k0 + y_s51_i10_j5_k1
   + y_s51_i10_j5_k2 = 1
 rec_s51_edge_11_8_choose_one: y_s51_i11_j8_k0 + y_s51_i11_j8_k1
   + y_s51_i11_j8_k2 = 1
 rec_s51_edge_12_11_choose_one: y_s51_i12_j11_k0 + y_s51_i12_j11_k1
   + y_s51_i12_j11_k2 = 1
 rec_s51_edge_13_14_choose_one: y_s51_i13_j14_k0 + y_s51_i13_j14_k1
   + y_s51_i13_j14_k2 = 1
 rec_s51_edge_14_12_choose_one: y_s51_i14_j12_k0 + y_s51_i14_j12_k1
   + y_s51_i14_j12_k2 = 1
 rec_s51_edge_15_13_choose_one: y_s51_i15_j13_k0 + y_s51_i15_j13_k1
   + y_s51_i15_j13_k2 = 1
 rec_s51_edge_16_17_choose_one: y_s51_i16_j17_k0 + y_s51_i16_j17_k1
   + y_s51_i16_j17_k2 = 1
 rec_s51_edge_17_38_choose_one: y_s51_i17_j38_k0 + y_s51_i17_j38_k1
   + y_s51_i17_j38_k2 = 1
 rec_s51_edge_18_20_choose_one: y_s51_i18_j20_k0 + y_s51_i18_j20_k1
   + y_s51_i18_j20_k2 = 1
 rec_s51_edge_19_45_choose_one: y_s51_i19_j45_k0 + y_s51_i19_j45_k1
   + y_s51_i19_j45_k2 = 1
 rec_s51_edge_20_16_choose_one: y_s51_i20_j16_k0 + y_s51_i20_j16_k1
   + y_s51_i20_j16_k2 = 1
 rec_s51_edge_21_24_choose_one: y_s51_i21_j24_k0 + y_s51_i21_j24_k1
   + y_s51_i21_j24_k2 = 1
 rec_s51_edge_22_21_choose_one: y_s51_i22_j21_k0 + y_s51_i22_j21_k1
   + y_s51_i22_j21_k2 = 1
 rec_s51_edge_23_46_choose_one: y_s51_i23_j46_k0 + y_s51_i23_j46_k1
   + y_s51_i23_j46_k2 = 1
 rec_s51_edge_24_23_choose_one: y_s51_i24_j23_k0 + y_s51_i24_j23_k1
   + y_s51_i24_j23_k2 = 1
 rec_s51_edge_25_31_choose_one: y_s51_i25_j31_k0 + y_s51_i25_j31_k1
   + y_s51_i25_j31_k2 = 1
 rec_s51_edge_26_27_choose_one: y_s51_i26_j27_k0 + y_s51_i26_j27_k1
   + y_s51_i26_j27_k2 = 1
 rec_s51_edge_27_28_choose_one: y_s51_i27_j28_k0 + y_s51_i27_j28_k1
   + y_s51_i27_j28_k2 = 1
 rec_s51_edge_28_25_choose_one: y_s51_i28_j25_k0 + y_s51_i28_j25_k1
   + y_s51_i28_j25_k2 = 1
 rec_s51_edge_29_7_choose_one: y_s51_i29_j7_k0 + y_s51_i29_j7_k1
   + y_s51_i29_j7_k2 = 1
 rec_s51_edge_30_29_choose_one: y_s51_i30_j29_k0 + y_s51_i30_j29_k1
   + y_s51_i30_j29_k2 = 1
 rec_s51_edge_31_30_choose_one: y_s51_i31_j30_k0 + y_s51_i31_j30_k1
   + y_s51_i31_j30_k2 = 1
 rec_s51_edge_32_40_choose_one: y_s51_i32_j40_k0 + y_s51_i32_j40_k1
   + y_s51_i32_j40_k2 = 1
 rec_s51_edge_33_35_choose_one: y_s51_i33_j35_k0 + y_s51_i33_j35_k1
   + y_s51_i33_j35_k2 = 1
 rec_s51_edge_34_33_choose_one: y_s51_i34_j33_k0 + y_s51_i34_j33_k1
   + y_s51_i34_j33_k2 = 1
 rec_s51_edge_35_32_choose_one: y_s51_i35_j32_k0 + y_s51_i35_j32_k1
   + y_s51_i35_j32_k2 = 1
 rec_s51_edge_36_49_choose_one: y_s51_i36_j49_k0 + y_s51_i36_j49_k1
   + y_s51_i36_j49_k2 = 1
 rec_s51_edge_37_39_choose_one: y_s51_i37_j39_k0 + y_s51_i37_j39_k1
   + y_s51_i37_j39_k2 = 1
 rec_s51_edge_38_15_choose_one: y_s51_i38_j15_k0 + y_s51_i38_j15_k1
   + y_s51_i38_j15_k2 = 1
 rec_s51_edge_39_53_choose_one: y_s51_i39_j53_k0 + y_s51_i39_j53_k1
   + y_s51_i39_j53_k2 = 1
 rec_s51_edge_40_37_choose_one: y_s51_i40_j37_k0 + y_s51_i40_j37_k1
   + y_s51_i40_j37_k2 = 1
 rec_s51_edge_41_4_choose_one: y_s51_i41_j4_k0 + y_s51_i41_j4_k1
   + y_s51_i41_j4_k2 = 1
 rec_s51_edge_42_44_choose_one: y_s51_i42_j44_k0 + y_s51_i42_j44_k1
   + y_s51_i42_j44_k2 = 1
 rec_s51_edge_43_19_choose_one: y_s51_i43_j19_k0 + y_s51_i43_j19_k1
   + y_s51_i43_j19_k2 = 1
 rec_s51_edge_44_50_choose_one: y_s51_i44_j50_k0 + y_s51_i44_j50_k1
   + y_s51_i44_j50_k2 = 1
 rec_s51_edge_45_18_choose_one: y_s51_i45_j18_k0 + y_s51_i45_j18_k1
   + y_s51_i45_j18_k2 = 1
 rec_s51_edge_46_42_choose_one: y_s51_i46_j42_k0 + y_s51_i46_j42_k1
   + y_s51_i46_j42_k2 = 1
 rec_s51_edge_47_41_choose_one: y_s51_i47_j41_k0 + y_s51_i47_j41_k1
   + y_s51_i47_j41_k2 = 1
 rec_s51_edge_48_51_choose_one: y_s51_i48_j51_k0 + y_s51_i48_j51_k1
   + y_s51_i48_j51_k2 = 1
 rec_s51_edge_49_26_choose_one: y_s51_i49_j26_k0 + y_s51_i49_j26_k1
   + y_s51_i49_j26_k2 = 1
 rec_s51_edge_50_48_choose_one: y_s51_i50_j48_k0 + y_s51_i50_j48_k1
   + y_s51_i50_j48_k2 = 1
 rec_s51_edge_51_36_choose_one: y_s51_i51_j36_k0 + y_s51_i51_j36_k1
   + y_s51_i51_j36_k2 = 1
 rec_s51_edge_52_47_choose_one: y_s51_i52_j47_k0 + y_s51_i52_j47_k1
   + y_s51_i52_j47_k2 = 1
 rec_s51_edge_53_43_choose_one: y_s51_i53_j43_k0 + y_s51_i53_j43_k1
   + y_s51_i53_j43_k2 = 1
 rec_s61_edge_0_2_choose_one: y_s61_i0_j2_k0 + y_s61_i0_j2_k1
   + y_s61_i0_j2_k2 = 1
 rec_s61_edge_1_22_choose_one: y_s61_i1_j22_k0 + y_s61_i1_j22_k1
   + y_s61_i1_j22_k2 = 1
 rec_s61_edge_2_1_choose_one: y_s61_i2_j1_k0 + y_s61_i2_j1_k1
   + y_s61_i2_j1_k2 = 1
 rec_s61_edge_3_9_choose_one: y_s61_i3_j9_k0 + y_s61_i3_j9_k1
   + y_s61_i3_j9_k2 = 1
 rec_s61_edge_4_34_choose_one: y_s61_i4_j34_k0 + y_s61_i4_j34_k1
   + y_s61_i4_j34_k2 = 1
 rec_s61_edge_5_0_choose_one: y_s61_i5_j0_k0 + y_s61_i5_j0_k1
   + y_s61_i5_j0_k2 = 1
 rec_s61_edge_6_52_choose_one: y_s61_i6_j52_k0 + y_s61_i6_j52_k1
   + y_s61_i6_j52_k2 = 1
 rec_s61_edge_7_3_choose_one: y_s61_i7_j3_k0 + y_s61_i7_j3_k1
   + y_s61_i7_j3_k2 = 1
 rec_s61_edge_8_10_choose_one: y_s61_i8_j10_k0 + y_s61_i8_j10_k1
   + y_s61_i8_j10_k2 = 1
 rec_s61_edge_9_6_choose_one: y_s61_i9_j6_k0 + y_s61_i9_j6_k1
   + y_s61_i9_j6_k2 = 1
 rec_s61_edge_10_5_choose_one: y_s61_i10_j5_k0 + y_s61_i10_j5_k1
   + y_s61_i10_j5_k2 = 1
 rec_s61_edge_11_8_choose_one: y_s61_i11_j8_k0 + y_s61_i11_j8_k1
   + y_s61_i11_j8_k2 = 1
 rec_s61_edge_12_11_choose_one: y_s61_i12_j11_k0 + y_s61_i12_j11_k1
   + y_s61_i12_j11_k2 = 1
 rec_s61_edge_13_14_choose_one: y_s61_i13_j14_k0 + y_s61_i13_j14_k1
   + y_s61_i13_j14_k2 = 1
 rec_s61_edge_14_12_choose_one: y_s61_i14_j12_k0 + y_s61_i14_j12_k1
   + y_s61_i14_j12_k2 = 1
 rec_s61_edge_15_13_choose_one: y_s61_i15_j13_k0 + y_s61_i15_j13_k1
   + y_s61_i15_j13_k2 = 1
 rec_s61_edge_16_17_choose_one: y_s61_i16_j17_k0 + y_s61_i16_j17_k1
   + y_s61_i16_j17_k2 = 1
 rec_s61_edge_17_38_choose_one: y_s61_i17_j38_k0 + y_s61_i17_j38_k1
   + y_s61_i17_j38_k2 = 1
 rec_s61_edge_18_20_choose_one: y_s61_i18_j20_k0 + y_s61_i18_j20_k1
   + y_s61_i18_j20_k2 = 1
 rec_s61_edge_19_45_choose_one: y_s61_i19_j45_k0 + y_s61_i19_j45_k1
   + y_s61_i19_j45_k2 = 1
 rec_s61_edge_20_16_choose_one: y_s61_i20_j16_k0 + y_s61_i20_j16_k1
   + y_s61_i20_j16_k2 = 1
 rec_s61_edge_21_24_choose_one: y_s61_i21_j24_k0 + y_s61_i21_j24_k1
   + y_s61_i21_j24_k2 = 1
 rec_s61_edge_22_21_choose_one: y_s61_i22_j21_k0 + y_s61_i22_j21_k1
   + y_s61_i22_j21_k2 = 1
 rec_s61_edge_23_46_choose_one: y_s61_i23_j46_k0 + y_s61_i23_j46_k1
   + y_s61_i23_j46_k2 = 1
 rec_s61_edge_24_23_choose_one: y_s61_i24_j23_k0 + y_s61_i24_j23_k1
   + y_s61_i24_j23_k2 = 1
 rec_s61_edge_25_31_choose_one: y_s61_i25_j31_k0 + y_s61_i25_j31_k1
   + y_s61_i25_j31_k2 = 1
 rec_s61_edge_26_27_choose_one: y_s61_i26_j27_k0 + y_s61_i26_j27_k1
   + y_s61_i26_j27_k2 = 1
 rec_s61_edge_27_28_choose_one: y_s61_i27_j28_k0 + y_s61_i27_j28_k1
   + y_s61_i27_j28_k2 = 1
 rec_s61_edge_28_25_choose_one: y_s61_i28_j25_k0 + y_s61_i28_j25_k1
   + y_s61_i28_j25_k2 = 1
 rec_s61_edge_29_7_choose_one: y_s61_i29_j7_k0 + y_s61_i29_j7_k1
   + y_s61_i29_j7_k2 = 1
 rec_s61_edge_30_29_choose_one: y_s61_i30_j29_k0 + y_s61_i30_j29_k1
   + y_s61_i30_j29_k2 = 1
 rec_s61_edge_31_30_choose_one: y_s61_i31_j30_k0 + y_s61_i31_j30_k1
   + y_s61_i31_j30_k2 = 1
 rec_s61_edge_32_40_choose_one: y_s61_i32_j40_k0 + y_s61_i32_j40_k1
   + y_s61_i32_j40_k2 = 1
 rec_s61_edge_33_35_choose_one: y_s61_i33_j35_k0 + y_s61_i33_j35_k1
   + y_s61_i33_j35_k2 = 1
 rec_s61_edge_34_33_choose_one: y_s61_i34_j33_k0 + y_s61_i34_j33_k1
   + y_s61_i34_j33_k2 = 1
 rec_s61_edge_35_32_choose_one: y_s61_i35_j32_k0 + y_s61_i35_j32_k1
   + y_s61_i35_j32_k2 = 1
 rec_s61_edge_36_49_choose_one: y_s61_i36_j49_k0 + y_s61_i36_j49_k1
   + y_s61_i36_j49_k2 = 1
 rec_s61_edge_37_39_choose_one: y_s61_i37_j39_k0 + y_s61_i37_j39_k1
   + y_s61_i37_j39_k2 = 1
 rec_s61_edge_38_15_choose_one: y_s61_i38_j15_k0 + y_s61_i38_j15_k1
   + y_s61_i38_j15_k2 = 1
 rec_s61_edge_39_53_choose_one: y_s61_i39_j53_k0 + y_s61_i39_j53_k1
   + y_s61_i39_j53_k2 = 1
 rec_s61_edge_40_37_choose_one: y_s61_i40_j37_k0 + y_s61_i40_j37_k1
   + y_s61_i40_j37_k2 = 1
 rec_s61_edge_41_4_choose_one: y_s61_i41_j4_k0 + y_s61_i41_j4_k1
   + y_s61_i41_j4_k2 = 1
 rec_s61_edge_42_44_choose_one: y_s61_i42_j44_k0 + y_s61_i42_j44_k1
   + y_s61_i42_j44_k2 = 1
 rec_s61_edge_43_19_choose_one: y_s61_i43_j19_k0 + y_s61_i43_j19_k1
   + y_s61_i43_j19_k2 = 1
 rec_s61_edge_44_50_choose_one: y_s61_i44_j50_k0 + y_s61_i44_j50_k1
   + y_s61_i44_j50_k2 = 1
 rec_s61_edge_45_18_choose_one: y_s61_i45_j18_k0 + y_s61_i45_j18_k1
   + y_s61_i45_j18_k2 = 1
 rec_s61_edge_46_42_choose_one: y_s61_i46_j42_k0 + y_s61_i46_j42_k1
   + y_s61_i46_j42_k2 = 1
 rec_s61_edge_47_41_choose_one: y_s61_i47_j41_k0 + y_s61_i47_j41_k1
   + y_s61_i47_j41_k2 = 1
 rec_s61_edge_48_51_choose_one: y_s61_i48_j51_k0 + y_s61_i48_j51_k1
   + y_s61_i48_j51_k2 = 1
 rec_s61_edge_49_26_choose_one: y_s61_i49_j26_k0 + y_s61_i49_j26_k1
   + y_s61_i49_j26_k2 = 1
 rec_s61_edge_50_48_choose_one: y_s61_i50_j48_k0 + y_s61_i50_j48_k1
   + y_s61_i50_j48_k2 = 1
 rec_s61_edge_51_36_choose_one: y_s61_i51_j36_k0 + y_s61_i51_j36_k1
   + y_s61_i51_j36_k2 = 1
 rec_s61_edge_52_47_choose_one: y_s61_i52_j47_k0 + y_s61_i52_j47_k1
   + y_s61_i52_j47_k2 = 1
 rec_s61_edge_53_43_choose_one: y_s61_i53_j43_k0 + y_s61_i53_j43_k1
   + y_s61_i53_j43_k2 = 1
 rec_s81_edge_0_2_choose_one: y_s81_i0_j2_k0 + y_s81_i0_j2_k1
   + y_s81_i0_j2_k2 = 1
 rec_s81_edge_1_22_choose_one: y_s81_i1_j22_k0 + y_s81_i1_j22_k1
   + y_s81_i1_j22_k2 = 1
 rec_s81_edge_2_1_choose_one: y_s81_i2_j1_k0 + y_s81_i2_j1_k1
   + y_s81_i2_j1_k2 = 1
 rec_s81_edge_3_9_choose_one: y_s81_i3_j9_k0 + y_s81_i3_j9_k1
   + y_s81_i3_j9_k2 = 1
 rec_s81_edge_4_34_choose_one: y_s81_i4_j34_k0 + y_s81_i4_j34_k1
   + y_s81_i4_j34_k2 = 1
 rec_s81_edge_5_0_choose_one: y_s81_i5_j0_k0 + y_s81_i5_j0_k1
   + y_s81_i5_j0_k2 = 1
 rec_s81_edge_6_52_choose_one: y_s81_i6_j52_k0 + y_s81_i6_j52_k1
   + y_s81_i6_j52_k2 = 1
 rec_s81_edge_7_3_choose_one: y_s81_i7_j3_k0 + y_s81_i7_j3_k1
   + y_s81_i7_j3_k2 = 1
 rec_s81_edge_8_10_choose_one: y_s81_i8_j10_k0 + y_s81_i8_j10_k1
   + y_s81_i8_j10_k2 = 1
 rec_s81_edge_9_6_choose_one: y_s81_i9_j6_k0 + y_s81_i9_j6_k1
   + y_s81_i9_j6_k2 = 1
 rec_s81_edge_10_5_choose_one: y_s81_i10_j5_k0 + y_s81_i10_j5_k1
   + y_s81_i10_j5_k2 = 1
 rec_s81_edge_11_8_choose_one: y_s81_i11_j8_k0 + y_s81_i11_j8_k1
   + y_s81_i11_j8_k2 = 1
 rec_s81_edge_12_11_choose_one: y_s81_i12_j11_k0 + y_s81_i12_j11_k1
   + y_s81_i12_j11_k2 = 1
 rec_s81_edge_13_14_choose_one: y_s81_i13_j14_k0 + y_s81_i13_j14_k1
   + y_s81_i13_j14_k2 = 1
 rec_s81_edge_14_12_choose_one: y_s81_i14_j12_k0 + y_s81_i14_j12_k1
   + y_s81_i14_j12_k2 = 1
 rec_s81_edge_15_13_choose_one: y_s81_i15_j13_k0 + y_s81_i15_j13_k1
   + y_s81_i15_j13_k2 = 1
 rec_s81_edge_16_17_choose_one: y_s81_i16_j17_k0 + y_s81_i16_j17_k1
   + y_s81_i16_j17_k2 = 1
 rec_s81_edge_17_38_choose_one: y_s81_i17_j38_k0 + y_s81_i17_j38_k1
   + y_s81_i17_j38_k2 = 1
 rec_s81_edge_18_20_choose_one: y_s81_i18_j20_k0 + y_s81_i18_j20_k1
   + y_s81_i18_j20_k2 = 1
 rec_s81_edge_19_45_choose_one: y_s81_i19_j45_k0 + y_s81_i19_j45_k1
   + y_s81_i19_j45_k2 = 1
 rec_s81_edge_20_16_choose_one: y_s81_i20_j16_k0 + y_s81_i20_j16_k1
   + y_s81_i20_j16_k2 = 1
 rec_s81_edge_21_24_choose_one: y_s81_i21_j24_k0 + y_s81_i21_j24_k1
   + y_s81_i21_j24_k2 = 1
 rec_s81_edge_22_21_choose_one: y_s81_i22_j21_k0 + y_s81_i22_j21_k1
   + y_s81_i22_j21_k2 = 1
 rec_s81_edge_23_46_choose_one: y_s81_i23_j46_k0 + y_s81_i23_j46_k1
   + y_s81_i23_j46_k2 = 1
 rec_s81_edge_24_23_choose_one: y_s81_i24_j23_k0 + y_s81_i24_j23_k1
   + y_s81_i24_j23_k2 = 1
 rec_s81_edge_25_31_choose_one: y_s81_i25_j31_k0 + y_s81_i25_j31_k1
   + y_s81_i25_j31_k2 = 1
 rec_s81_edge_26_27_choose_one: y_s81_i26_j27_k0 + y_s81_i26_j27_k1
   + y_s81_i26_j27_k2 = 1
 rec_s81_edge_27_28_choose_one: y_s81_i27_j28_k0 + y_s81_i27_j28_k1
   + y_s81_i27_j28_k2 = 1
 rec_s81_edge_28_25_choose_one: y_s81_i28_j25_k0 + y_s81_i28_j25_k1
   + y_s81_i28_j25_k2 = 1
 rec_s81_edge_29_7_choose_one: y_s81_i29_j7_k0 + y_s81_i29_j7_k1
   + y_s81_i29_j7_k2 = 1
 rec_s81_edge_30_29_choose_one: y_s81_i30_j29_k0 + y_s81_i30_j29_k1
   + y_s81_i30_j29_k2 = 1
 rec_s81_edge_31_30_choose_one: y_s81_i31_j30_k0 + y_s81_i31_j30_k1
   + y_s81_i31_j30_k2 = 1
 rec_s81_edge_32_40_choose_one: y_s81_i32_j40_k0 + y_s81_i32_j40_k1
   + y_s81_i32_j40_k2 = 1
 rec_s81_edge_33_35_choose_one: y_s81_i33_j35_k0 + y_s81_i33_j35_k1
   + y_s81_i33_j35_k2 = 1
 rec_s81_edge_34_33_choose_one: y_s81_i34_j33_k0 + y_s81_i34_j33_k1
   + y_s81_i34_j33_k2 = 1
 rec_s81_edge_35_32_choose_one: y_s81_i35_j32_k0 + y_s81_i35_j32_k1
   + y_s81_i35_j32_k2 = 1
 rec_s81_edge_36_49_choose_one: y_s81_i36_j49_k0 + y_s81_i36_j49_k1
   + y_s81_i36_j49_k2 = 1
 rec_s81_edge_37_39_choose_one: y_s81_i37_j39_k0 + y_s81_i37_j39_k1
   + y_s81_i37_j39_k2 = 1
 rec_s81_edge_38_15_choose_one: y_s81_i38_j15_k0 + y_s81_i38_j15_k1
   + y_s81_i38_j15_k2 = 1
 rec_s81_edge_39_53_choose_one: y_s81_i39_j53_k0 + y_s81_i39_j53_k1
   + y_s81_i39_j53_k2 = 1
 rec_s81_edge_40_37_choose_one: y_s81_i40_j37_k0 + y_s81_i40_j37_k1
   + y_s81_i40_j37_k2 = 1
 rec_s81_edge_41_4_choose_one: y_s81_i41_j4_k0 + y_s81_i41_j4_k1
   + y_s81_i41_j4_k2 = 1
 rec_s81_edge_42_44_choose_one: y_s81_i42_j44_k0 + y_s81_i42_j44_k1
   + y_s81_i42_j44_k2 = 1
 rec_s81_edge_43_19_choose_one: y_s81_i43_j19_k0 + y_s81_i43_j19_k1
   + y_s81_i43_j19_k2 = 1
 rec_s81_edge_44_50_choose_one: y_s81_i44_j50_k0 + y_s81_i44_j50_k1
   + y_s81_i44_j50_k2 = 1
 rec_s81_edge_45_18_choose_one: y_s81_i45_j18_k0 + y_s81_i45_j18_k1
   + y_s81_i45_j18_k2 = 1
 rec_s81_edge_46_42_choose_one: y_s81_i46_j42_k0 + y_s81_i46_j42_k1
   + y_s81_i46_j42_k2 = 1
 rec_s81_edge_47_41_choose_one: y_s81_i47_j41_k0 + y_s81_i47_j41_k1
   + y_s81_i47_j41_k2 = 1
 rec_s81_edge_48_51_choose_one: y_s81_i48_j51_k0 + y_s81_i48_j51_k1
   + y_s81_i48_j51_k2 = 1
 rec_s81_edge_49_26_choose_one: y_s81_i49_j26_k0 + y_s81_i49_j26_k1
   + y_s81_i49_j26_k2 = 1
 rec_s81_edge_50_48_choose_one: y_s81_i50_j48_k0 + y_s81_i50_j48_k1
   + y_s81_i50_j48_k2 = 1
 rec_s81_edge_51_36_choose_one: y_s81_i51_j36_k0 + y_s81_i51_j36_k1
   + y_s81_i51_j36_k2 = 1
 rec_s81_edge_52_47_choose_one: y_s81_i52_j47_k0 + y_s81_i52_j47_k1
   + y_s81_i52_j47_k2 = 1
 rec_s81_edge_53_43_choose_one: y_s81_i53_j43_k0 + y_s81_i53_j43_k1
   + y_s81_i53_j43_k2 = 1
 rec_s9_edge_0_2_choose_one: y_s9_i0_j2_k0 + y_s9_i0_j2_k1 + y_s9_i0_j2_k2
   = 1
 rec_s9_edge_1_22_choose_one: y_s9_i1_j22_k0 + y_s9_i1_j22_k1
   + y_s9_i1_j22_k2 = 1
 rec_s9_edge_2_1_choose_one: y_s9_i2_j1_k0 + y_s9_i2_j1_k1 + y_s9_i2_j1_k2
   = 1
 rec_s9_edge_3_9_choose_one: y_s9_i3_j9_k0 + y_s9_i3_j9_k1 + y_s9_i3_j9_k2
   = 1
 rec_s9_edge_4_34_choose_one: y_s9_i4_j34_k0 + y_s9_i4_j34_k1
   + y_s9_i4_j34_k2 = 1
 rec_s9_edge_5_0_choose_one: y_s9_i5_j0_k0 + y_s9_i5_j0_k1 + y_s9_i5_j0_k2
   = 1
 rec_s9_edge_6_52_choose_one: y_s9_i6_j52_k0 + y_s9_i6_j52_k1
   + y_s9_i6_j52_k2 = 1
 rec_s9_edge_7_3_choose_one: y_s9_i7_j3_k0 + y_s9_i7_j3_k1 + y_s9_i7_j3_k2
   = 1
 rec_s9_edge_8_10_choose_one: y_s9_i8_j10_k0 + y_s9_i8_j10_k1
   + y_s9_i8_j10_k2 = 1
 rec_s9_edge_9_6_choose_one: y_s9_i9_j6_k0 + y_s9_i9_j6_k1 + y_s9_i9_j6_k2
   = 1
 rec_s9_edge_10_5_choose_one: y_s9_i10_j5_k0 + y_s9_i10_j5_k1
   + y_s9_i10_j5_k2 = 1
 rec_s9_edge_11_8_choose_one: y_s9_i11_j8_k0 + y_s9_i11_j8_k1
   + y_s9_i11_j8_k2 = 1
 rec_s9_edge_12_11_choose_one: y_s9_i12_j11_k0 + y_s9_i12_j11_k1
   + y_s9_i12_j11_k2 = 1
 rec_s9_edge_13_14_choose_one: y_s9_i13_j14_k0 + y_s9_i13_j14_k1
   + y_s9_i13_j14_k2 = 1
 rec_s9_edge_14_12_choose_one: y_s9_i14_j12_k0 + y_s9_i14_j12_k1
   + y_s9_i14_j12_k2 = 1
 rec_s9_edge_15_13_choose_one: y_s9_i15_j13_k0 + y_s9_i15_j13_k1
   + y_s9_i15_j13_k2 = 1
 rec_s9_edge_16_17_choose_one: y_s9_i16_j17_k0 + y_s9_i16_j17_k1
   + y_s9_i16_j17_k2 = 1
 rec_s9_edge_17_38_choose_one: y_s9_i17_j38_k0 + y_s9_i17_j38_k1
   + y_s9_i17_j38_k2 = 1
 rec_s9_edge_18_20_choose_one: y_s9_i18_j20_k0 + y_s9_i18_j20_k1
   + y_s9_i18_j20_k2 = 1
 rec_s9_edge_19_45_choose_one: y_s9_i19_j45_k0 + y_s9_i19_j45_k1
   + y_s9_i19_j45_k2 = 1
 rec_s9_edge_20_16_choose_one: y_s9_i20_j16_k0 + y_s9_i20_j16_k1
   + y_s9_i20_j16_k2 = 1
 rec_s9_edge_21_24_choose_one: y_s9_i21_j24_k0 + y_s9_i21_j24_k1
   + y_s9_i21_j24_k2 = 1
 rec_s9_edge_22_21_choose_one: y_s9_i22_j21_k0 + y_s9_i22_j21_k1
   + y_s9_i22_j21_k2 = 1
 rec_s9_edge_23_46_choose_one: y_s9_i23_j46_k0 + y_s9_i23_j46_k1
   + y_s9_i23_j46_k2 = 1
 rec_s9_edge_24_23_choose_one: y_s9_i24_j23_k0 + y_s9_i24_j23_k1
   + y_s9_i24_j23_k2 = 1
 rec_s9_edge_25_31_choose_one: y_s9_i25_j31_k0 + y_s9_i25_j31_k1
   + y_s9_i25_j31_k2 = 1
 rec_s9_edge_26_27_choose_one: y_s9_i26_j27_k0 + y_s9_i26_j27_k1
   + y_s9_i26_j27_k2 = 1
 rec_s9_edge_27_28_choose_one: y_s9_i27_j28_k0 + y_s9_i27_j28_k1
   + y_s9_i27_j28_k2 = 1
 rec_s9_edge_28_25_choose_one: y_s9_i28_j25_k0 + y_s9_i28_j25_k1
   + y_s9_i28_j25_k2 = 1
 rec_s9_edge_29_7_choose_one: y_s9_i29_j7_k0 + y_s9_i29_j7_k1
   + y_s9_i29_j7_k2 = 1
 rec_s9_edge_30_29_choose_one: y_s9_i30_j29_k0 + y_s9_i30_j29_k1
   + y_s9_i30_j29_k2 = 1
 rec_s9_edge_31_30_choose_one: y_s9_i31_j30_k0 + y_s9_i31_j30_k1
   + y_s9_i31_j30_k2 = 1
 rec_s9_edge_32_40_choose_one: y_s9_i32_j40_k0 + y_s9_i32_j40_k1
   + y_s9_i32_j40_k2 = 1
 rec_s9_edge_33_35_choose_one: y_s9_i33_j35_k0 + y_s9_i33_j35_k1
   + y_s9_i33_j35_k2 = 1
 rec_s9_edge_34_33_choose_one: y_s9_i34_j33_k0 + y_s9_i34_j33_k1
   + y_s9_i34_j33_k2 = 1
 rec_s9_edge_35_32_choose_one: y_s9_i35_j32_k0 + y_s9_i35_j32_k1
   + y_s9_i35_j32_k2 = 1
 rec_s9_edge_36_49_choose_one: y_s9_i36_j49_k0 + y_s9_i36_j49_k1
   + y_s9_i36_j49_k2 = 1
 rec_s9_edge_37_39_choose_one: y_s9_i37_j39_k0 + y_s9_i37_j39_k1
   + y_s9_i37_j39_k2 = 1
 rec_s9_edge_38_15_choose_one: y_s9_i38_j15_k0 + y_s9_i38_j15_k1
   + y_s9_i38_j15_k2 = 1
 rec_s9_edge_39_53_choose_one: y_s9_i39_j53_k0 + y_s9_i39_j53_k1
   + y_s9_i39_j53_k2 = 1
 rec_s9_edge_40_37_choose_one: y_s9_i40_j37_k0 + y_s9_i40_j37_k1
   + y_s9_i40_j37_k2 = 1
 rec_s9_edge_41_4_choose_one: y_s9_i41_j4_k0 + y_s9_i41_j4_k1
   + y_s9_i41_j4_k2 = 1
 rec_s9_edge_42_44_choose_one: y_s9_i42_j44_k0 + y_s9_i42_j44_k1
   + y_s9_i42_j44_k2 = 1
 rec_s9_edge_43_19_choose_one: y_s9_i43_j19_k0 + y_s9_i43_j19_k1
   + y_s9_i43_j19_k2 = 1
 rec_s9_edge_44_50_choose_one: y_s9_i44_j50_k0 + y_s9_i44_j50_k1
   + y_s9_i44_j50_k2 = 1
 rec_s9_edge_45_18_choose_one: y_s9_i45_j18_k0 + y_s9_i45_j18_k1
   + y_s9_i45_j18_k2 = 1
 rec_s9_edge_46_42_choose_one: y_s9_i46_j42_k0 + y_s9_i46_j42_k1
   + y_s9_i46_j42_k2 = 1
 rec_s9_edge_47_41_choose_one: y_s9_i47_j41_k0 + y_s9_i47_j41_k1
   + y_s9_i47_j41_k2 = 1
 rec_s9_edge_48_51_choose_one: y_s9_i48_j51_k0 + y_s9_i48_j51_k1
   + y_s9_i48_j51_k2 = 1
 rec_s9_edge_49_26_choose_one: y_s9_i49_j26_k0 + y_s9_i49_j26_k1
   + y_s9_i49_j26_k2 = 1
 rec_s9_edge_50_48_choose_one: y_s9_i50_j48_k0 + y_s9_i50_j48_k1
   + y_s9_i50_j48_k2 = 1
 rec_s9_edge_51_36_choose_one: y_s9_i51_j36_k0 + y_s9_i51_j36_k1
   + y_s9_i51_j36_k2 = 1
 rec_s9_edge_52_47_choose_one: y_s9_i52_j47_k0 + y_s9_i52_j47_k1
   + y_s9_i52_j47_k2 = 1
 rec_s9_edge_53_43_choose_one: y_s9_i53_j43_k0 + y_s9_i53_j43_k1
   + y_s9_i53_j43_k2 = 1
 rec_s63_edge_0_2_choose_one: y_s63_i0_j2_k0 + y_s63_i0_j2_k1
   + y_s63_i0_j2_k2 = 1
 rec_s63_edge_1_22_choose_one: y_s63_i1_j22_k0 + y_s63_i1_j22_k1
   + y_s63_i1_j22_k2 = 1
 rec_s63_edge_2_1_choose_one: y_s63_i2_j1_k0 + y_s63_i2_j1_k1
   + y_s63_i2_j1_k2 = 1
 rec_s63_edge_3_9_choose_one: y_s63_i3_j9_k0 + y_s63_i3_j9_k1
   + y_s63_i3_j9_k2 = 1
 rec_s63_edge_4_34_choose_one: y_s63_i4_j34_k0 + y_s63_i4_j34_k1
   + y_s63_i4_j34_k2 = 1
 rec_s63_edge_5_0_choose_one: y_s63_i5_j0_k0 + y_s63_i5_j0_k1
   + y_s63_i5_j0_k2 = 1
 rec_s63_edge_6_52_choose_one: y_s63_i6_j52_k0 + y_s63_i6_j52_k1
   + y_s63_i6_j52_k2 = 1
 rec_s63_edge_7_3_choose_one: y_s63_i7_j3_k0 + y_s63_i7_j3_k1
   + y_s63_i7_j3_k2 = 1
 rec_s63_edge_8_10_choose_one: y_s63_i8_j10_k0 + y_s63_i8_j10_k1
   + y_s63_i8_j10_k2 = 1
 rec_s63_edge_9_6_choose_one: y_s63_i9_j6_k0 + y_s63_i9_j6_k1
   + y_s63_i9_j6_k2 = 1
 rec_s63_edge_10_5_choose_one: y_s63_i10_j5_k0 + y_s63_i10_j5_k1
   + y_s63_i10_j5_k2 = 1
 rec_s63_edge_11_8_choose_one: y_s63_i11_j8_k0 + y_s63_i11_j8_k1
   + y_s63_i11_j8_k2 = 1
 rec_s63_edge_12_11_choose_one: y_s63_i12_j11_k0 + y_s63_i12_j11_k1
   + y_s63_i12_j11_k2 = 1
 rec_s63_edge_13_14_choose_one: y_s63_i13_j14_k0 + y_s63_i13_j14_k1
   + y_s63_i13_j14_k2 = 1
 rec_s63_edge_14_12_choose_one: y_s63_i14_j12_k0 + y_s63_i14_j12_k1
   + y_s63_i14_j12_k2 = 1
 rec_s63_edge_15_13_choose_one: y_s63_i15_j13_k0 + y_s63_i15_j13_k1
   + y_s63_i15_j13_k2 = 1
 rec_s63_edge_16_17_choose_one: y_s63_i16_j17_k0 + y_s63_i16_j17_k1
   + y_s63_i16_j17_k2 = 1
 rec_s63_edge_17_38_choose_one: y_s63_i17_j38_k0 + y_s63_i17_j38_k1
   + y_s63_i17_j38_k2 = 1
 rec_s63_edge_18_20_choose_one: y_s63_i18_j20_k0 + y_s63_i18_j20_k1
   + y_s63_i18_j20_k2 = 1
 rec_s63_edge_19_45_choose_one: y_s63_i19_j45_k0 + y_s63_i19_j45_k1
   + y_s63_i19_j45_k2 = 1
 rec_s63_edge_20_16_choose_one: y_s63_i20_j16_k0 + y_s63_i20_j16_k1
   + y_s63_i20_j16_k2 = 1
 rec_s63_edge_21_24_choose_one: y_s63_i21_j24_k0 + y_s63_i21_j24_k1
   + y_s63_i21_j24_k2 = 1
 rec_s63_edge_22_21_choose_one: y_s63_i22_j21_k0 + y_s63_i22_j21_k1
   + y_s63_i22_j21_k2 = 1
 rec_s63_edge_23_46_choose_one: y_s63_i23_j46_k0 + y_s63_i23_j46_k1
   + y_s63_i23_j46_k2 = 1
 rec_s63_edge_24_23_choose_one: y_s63_i24_j23_k0 + y_s63_i24_j23_k1
   + y_s63_i24_j23_k2 = 1
 rec_s63_edge_25_31_choose_one: y_s63_i25_j31_k0 + y_s63_i25_j31_k1
   + y_s63_i25_j31_k2 = 1
 rec_s63_edge_26_27_choose_one: y_s63_i26_j27_k0 + y_s63_i26_j27_k1
   + y_s63_i26_j27_k2 = 1
 rec_s63_edge_27_28_choose_one: y_s63_i27_j28_k0 + y_s63_i27_j28_k1
   + y_s63_i27_j28_k2 = 1
 rec_s63_edge_28_25_choose_one: y_s63_i28_j25_k0 + y_s63_i28_j25_k1
   + y_s63_i28_j25_k2 = 1
 rec_s63_edge_29_7_choose_one: y_s63_i29_j7_k0 + y_s63_i29_j7_k1
   + y_s63_i29_j7_k2 = 1
 rec_s63_edge_30_29_choose_one: y_s63_i30_j29_k0 + y_s63_i30_j29_k1
   + y_s63_i30_j29_k2 = 1
 rec_s63_edge_31_30_choose_one: y_s63_i31_j30_k0 + y_s63_i31_j30_k1
   + y_s63_i31_j30_k2 = 1
 rec_s63_edge_32_40_choose_one: y_s63_i32_j40_k0 + y_s63_i32_j40_k1
   + y_s63_i32_j40_k2 = 1
 rec_s63_edge_33_35_choose_one: y_s63_i33_j35_k0 + y_s63_i33_j35_k1
   + y_s63_i33_j35_k2 = 1
 rec_s63_edge_34_33_choose_one: y_s63_i34_j33_k0 + y_s63_i34_j33_k1
   + y_s63_i34_j33_k2 = 1
 rec_s63_edge_35_32_choose_one: y_s63_i35_j32_k0 + y_s63_i35_j32_k1
   + y_s63_i35_j32_k2 = 1
 rec_s63_edge_36_49_choose_one: y_s63_i36_j49_k0 + y_s63_i36_j49_k1
   + y_s63_i36_j49_k2 = 1
 rec_s63_edge_37_39_choose_one: y_s63_i37_j39_k0 + y_s63_i37_j39_k1
   + y_s63_i37_j39_k2 = 1
 rec_s63_edge_38_15_choose_one: y_s63_i38_j15_k0 + y_s63_i38_j15_k1
   + y_s63_i38_j15_k2 = 1
 rec_s63_edge_39_53_choose_one: y_s63_i39_j53_k0 + y_s63_i39_j53_k1
   + y_s63_i39_j53_k2 = 1
 rec_s63_edge_40_37_choose_one: y_s63_i40_j37_k0 + y_s63_i40_j37_k1
   + y_s63_i40_j37_k2 = 1
 rec_s63_edge_41_4_choose_one: y_s63_i41_j4_k0 + y_s63_i41_j4_k1
   + y_s63_i41_j4_k2 = 1
 rec_s63_edge_42_44_choose_one: y_s63_i42_j44_k0 + y_s63_i42_j44_k1
   + y_s63_i42_j44_k2 = 1
 rec_s63_edge_43_19_choose_one: y_s63_i43_j19_k0 + y_s63_i43_j19_k1
   + y_s63_i43_j19_k2 = 1
 rec_s63_edge_44_50_choose_one: y_s63_i44_j50_k0 + y_s63_i44_j50_k1
   + y_s63_i44_j50_k2 = 1
 rec_s63_edge_45_18_choose_one: y_s63_i45_j18_k0 + y_s63_i45_j18_k1
   + y_s63_i45_j18_k2 = 1
 rec_s63_edge_46_42_choose_one: y_s63_i46_j42_k0 + y_s63_i46_j42_k1
   + y_s63_i46_j42_k2 = 1
 rec_s63_edge_47_41_choose_one: y_s63_i47_j41_k0 + y_s63_i47_j41_k1
   + y_s63_i47_j41_k2 = 1
 rec_s63_edge_48_51_choose_one: y_s63_i48_j51_k0 + y_s63_i48_j51_k1
   + y_s63_i48_j51_k2 = 1
 rec_s63_edge_49_26_choose_one: y_s63_i49_j26_k0 + y_s63_i49_j26_k1
   + y_s63_i49_j26_k2 = 1
 rec_s63_edge_50_48_choose_one: y_s63_i50_j48_k0 + y_s63_i50_j48_k1
   + y_s63_i50_j48_k2 = 1
 rec_s63_edge_51_36_choose_one: y_s63_i51_j36_k0 + y_s63_i51_j36_k1
   + y_s63_i51_j36_k2 = 1
 rec_s63_edge_52_47_choose_one: y_s63_i52_j47_k0 + y_s63_i52_j47_k1
   + y_s63_i52_j47_k2 = 1
 rec_s63_edge_53_43_choose_one: y_s63_i53_j43_k0 + y_s63_i53_j43_k1
   + y_s63_i53_j43_k2 = 1
 rec_s43_edge_0_2_choose_one: y_s43_i0_j2_k0 + y_s43_i0_j2_k1
   + y_s43_i0_j2_k2 = 1
 rec_s43_edge_1_22_choose_one: y_s43_i1_j22_k0 + y_s43_i1_j22_k1
   + y_s43_i1_j22_k2 = 1
 rec_s43_edge_2_1_choose_one: y_s43_i2_j1_k0 + y_s43_i2_j1_k1
   + y_s43_i2_j1_k2 = 1
 rec_s43_edge_3_9_choose_one: y_s43_i3_j9_k0 + y_s43_i3_j9_k1
   + y_s43_i3_j9_k2 = 1
 rec_s43_edge_4_34_choose_one: y_s43_i4_j34_k0 + y_s43_i4_j34_k1
   + y_s43_i4_j34_k2 = 1
 rec_s43_edge_5_0_choose_one: y_s43_i5_j0_k0 + y_s43_i5_j0_k1
   + y_s43_i5_j0_k2 = 1
 rec_s43_edge_6_52_choose_one: y_s43_i6_j52_k0 + y_s43_i6_j52_k1
   + y_s43_i6_j52_k2 = 1
 rec_s43_edge_7_3_choose_one: y_s43_i7_j3_k0 + y_s43_i7_j3_k1
   + y_s43_i7_j3_k2 = 1
 rec_s43_edge_8_10_choose_one: y_s43_i8_j10_k0 + y_s43_i8_j10_k1
   + y_s43_i8_j10_k2 = 1
 rec_s43_edge_9_6_choose_one: y_s43_i9_j6_k0 + y_s43_i9_j6_k1
   + y_s43_i9_j6_k2 = 1
 rec_s43_edge_10_5_choose_one: y_s43_i10_j5_k0 + y_s43_i10_j5_k1
   + y_s43_i10_j5_k2 = 1
 rec_s43_edge_11_8_choose_one: y_s43_i11_j8_k0 + y_s43_i11_j8_k1
   + y_s43_i11_j8_k2 = 1
 rec_s43_edge_12_11_choose_one: y_s43_i12_j11_k0 + y_s43_i12_j11_k1
   + y_s43_i12_j11_k2 = 1
 rec_s43_edge_13_14_choose_one: y_s43_i13_j14_k0 + y_s43_i13_j14_k1
   + y_s43_i13_j14_k2 = 1
 rec_s43_edge_14_12_choose_one: y_s43_i14_j12_k0 + y_s43_i14_j12_k1
   + y_s43_i14_j12_k2 = 1
 rec_s43_edge_15_13_choose_one: y_s43_i15_j13_k0 + y_s43_i15_j13_k1
   + y_s43_i15_j13_k2 = 1
 rec_s43_edge_16_17_choose_one: y_s43_i16_j17_k0 + y_s43_i16_j17_k1
   + y_s43_i16_j17_k2 = 1
 rec_s43_edge_17_38_choose_one: y_s43_i17_j38_k0 + y_s43_i17_j38_k1
   + y_s43_i17_j38_k2 = 1
 rec_s43_edge_18_20_choose_one: y_s43_i18_j20_k0 + y_s43_i18_j20_k1
   + y_s43_i18_j20_k2 = 1
 rec_s43_edge_19_45_choose_one: y_s43_i19_j45_k0 + y_s43_i19_j45_k1
   + y_s43_i19_j45_k2 = 1
 rec_s43_edge_20_16_choose_one: y_s43_i20_j16_k0 + y_s43_i20_j16_k1
   + y_s43_i20_j16_k2 = 1
 rec_s43_edge_21_24_choose_one: y_s43_i21_j24_k0 + y_s43_i21_j24_k1
   + y_s43_i21_j24_k2 = 1
 rec_s43_edge_22_21_choose_one: y_s43_i22_j21_k0 + y_s43_i22_j21_k1
   + y_s43_i22_j21_k2 = 1
 rec_s43_edge_23_46_choose_one: y_s43_i23_j46_k0 + y_s43_i23_j46_k1
   + y_s43_i23_j46_k2 = 1
 rec_s43_edge_24_23_choose_one: y_s43_i24_j23_k0 + y_s43_i24_j23_k1
   + y_s43_i24_j23_k2 = 1
 rec_s43_edge_25_31_choose_one: y_s43_i25_j31_k0 + y_s43_i25_j31_k1
   + y_s43_i25_j31_k2 = 1
 rec_s43_edge_26_27_choose_one: y_s43_i26_j27_k0 + y_s43_i26_j27_k1
   + y_s43_i26_j27_k2 = 1
 rec_s43_edge_27_28_choose_one: y_s43_i27_j28_k0 + y_s43_i27_j28_k1
   + y_s43_i27_j28_k2 = 1
 rec_s43_edge_28_25_choose_one: y_s43_i28_j25_k0 + y_s43_i28_j25_k1
   + y_s43_i28_j25_k2 = 1
 rec_s43_edge_29_7_choose_one: y_s43_i29_j7_k0 + y_s43_i29_j7_k1
   + y_s43_i29_j7_k2 = 1
 rec_s43_edge_30_29_choose_one: y_s43_i30_j29_k0 + y_s43_i30_j29_k1
   + y_s43_i30_j29_k2 = 1
 rec_s43_edge_31_30_choose_one: y_s43_i31_j30_k0 + y_s43_i31_j30_k1
   + y_s43_i31_j30_k2 = 1
 rec_s43_edge_32_40_choose_one: y_s43_i32_j40_k0 + y_s43_i32_j40_k1
   + y_s43_i32_j40_k2 = 1
 rec_s43_edge_33_35_choose_one: y_s43_i33_j35_k0 + y_s43_i33_j35_k1
   + y_s43_i33_j35_k2 = 1
 rec_s43_edge_34_33_choose_one: y_s43_i34_j33_k0 + y_s43_i34_j33_k1
   + y_s43_i34_j33_k2 = 1
 rec_s43_edge_35_32_choose_one: y_s43_i35_j32_k0 + y_s43_i35_j32_k1
   + y_s43_i35_j32_k2 = 1
 rec_s43_edge_36_49_choose_one: y_s43_i36_j49_k0 + y_s43_i36_j49_k1
   + y_s43_i36_j49_k2 = 1
 rec_s43_edge_37_39_choose_one: y_s43_i37_j39_k0 + y_s43_i37_j39_k1
   + y_s43_i37_j39_k2 = 1
 rec_s43_edge_38_15_choose_one: y_s43_i38_j15_k0 + y_s43_i38_j15_k1
   + y_s43_i38_j15_k2 = 1
 rec_s43_edge_39_53_choose_one: y_s43_i39_j53_k0 + y_s43_i39_j53_k1
   + y_s43_i39_j53_k2 = 1
 rec_s43_edge_40_37_choose_one: y_s43_i40_j37_k0 + y_s43_i40_j37_k1
   + y_s43_i40_j37_k2 = 1
 rec_s43_edge_41_4_choose_one: y_s43_i41_j4_k0 + y_s43_i41_j4_k1
   + y_s43_i41_j4_k2 = 1
 rec_s43_edge_42_44_choose_one: y_s43_i42_j44_k0 + y_s43_i42_j44_k1
   + y_s43_i42_j44_k2 = 1
 rec_s43_edge_43_19_choose_one: y_s43_i43_j19_k0 + y_s43_i43_j19_k1
   + y_s43_i43_j19_k2 = 1
 rec_s43_edge_44_50_choose_one: y_s43_i44_j50_k0 + y_s43_i44_j50_k1
   + y_s43_i44_j50_k2 = 1
 rec_s43_edge_45_18_choose_one: y_s43_i45_j18_k0 + y_s43_i45_j18_k1
   + y_s43_i45_j18_k2 = 1
 rec_s43_edge_46_42_choose_one: y_s43_i46_j42_k0 + y_s43_i46_j42_k1
   + y_s43_i46_j42_k2 = 1
 rec_s43_edge_47_41_choose_one: y_s43_i47_j41_k0 + y_s43_i47_j41_k1
   + y_s43_i47_j41_k2 = 1
 rec_s43_edge_48_51_choose_one: y_s43_i48_j51_k0 + y_s43_i48_j51_k1
   + y_s43_i48_j51_k2 = 1
 rec_s43_edge_49_26_choose_one: y_s43_i49_j26_k0 + y_s43_i49_j26_k1
   + y_s43_i49_j26_k2 = 1
 rec_s43_edge_50_48_choose_one: y_s43_i50_j48_k0 + y_s43_i50_j48_k1
   + y_s43_i50_j48_k2 = 1
 rec_s43_edge_51_36_choose_one: y_s43_i51_j36_k0 + y_s43_i51_j36_k1
   + y_s43_i51_j36_k2 = 1
 rec_s43_edge_52_47_choose_one: y_s43_i52_j47_k0 + y_s43_i52_j47_k1
   + y_s43_i52_j47_k2 = 1
 rec_s43_edge_53_43_choose_one: y_s43_i53_j43_k0 + y_s43_i53_j43_k1
   + y_s43_i53_j43_k2 = 1
 rec_s72_edge_0_2_choose_one: y_s72_i0_j2_k0 + y_s72_i0_j2_k1
   + y_s72_i0_j2_k2 = 1
 rec_s72_edge_1_22_choose_one: y_s72_i1_j22_k0 + y_s72_i1_j22_k1
   + y_s72_i1_j22_k2 = 1
 rec_s72_edge_2_1_choose_one: y_s72_i2_j1_k0 + y_s72_i2_j1_k1
   + y_s72_i2_j1_k2 = 1
 rec_s72_edge_3_9_choose_one: y_s72_i3_j9_k0 + y_s72_i3_j9_k1
   + y_s72_i3_j9_k2 = 1
 rec_s72_edge_4_34_choose_one: y_s72_i4_j34_k0 + y_s72_i4_j34_k1
   + y_s72_i4_j34_k2 = 1
 rec_s72_edge_5_0_choose_one: y_s72_i5_j0_k0 + y_s72_i5_j0_k1
   + y_s72_i5_j0_k2 = 1
 rec_s72_edge_6_52_choose_one: y_s72_i6_j52_k0 + y_s72_i6_j52_k1
   + y_s72_i6_j52_k2 = 1
 rec_s72_edge_7_3_choose_one: y_s72_i7_j3_k0 + y_s72_i7_j3_k1
   + y_s72_i7_j3_k2 = 1
 rec_s72_edge_8_10_choose_one: y_s72_i8_j10_k0 + y_s72_i8_j10_k1
   + y_s72_i8_j10_k2 = 1
 rec_s72_edge_9_6_choose_one: y_s72_i9_j6_k0 + y_s72_i9_j6_k1
   + y_s72_i9_j6_k2 = 1
 rec_s72_edge_10_5_choose_one: y_s72_i10_j5_k0 + y_s72_i10_j5_k1
   + y_s72_i10_j5_k2 = 1
 rec_s72_edge_11_8_choose_one: y_s72_i11_j8_k0 + y_s72_i11_j8_k1
   + y_s72_i11_j8_k2 = 1
 rec_s72_edge_12_11_choose_one: y_s72_i12_j11_k0 + y_s72_i12_j11_k1
   + y_s72_i12_j11_k2 = 1
 rec_s72_edge_13_14_choose_one: y_s72_i13_j14_k0 + y_s72_i13_j14_k1
   + y_s72_i13_j14_k2 = 1
 rec_s72_edge_14_12_choose_one: y_s72_i14_j12_k0 + y_s72_i14_j12_k1
   + y_s72_i14_j12_k2 = 1
 rec_s72_edge_15_13_choose_one: y_s72_i15_j13_k0 + y_s72_i15_j13_k1
   + y_s72_i15_j13_k2 = 1
 rec_s72_edge_16_17_choose_one: y_s72_i16_j17_k0 + y_s72_i16_j17_k1
   + y_s72_i16_j17_k2 = 1
 rec_s72_edge_17_38_choose_one: y_s72_i17_j38_k0 + y_s72_i17_j38_k1
   + y_s72_i17_j38_k2 = 1
 rec_s72_edge_18_20_choose_one: y_s72_i18_j20_k0 + y_s72_i18_j20_k1
   + y_s72_i18_j20_k2 = 1
 rec_s72_edge_19_45_choose_one: y_s72_i19_j45_k0 + y_s72_i19_j45_k1
   + y_s72_i19_j45_k2 = 1
 rec_s72_edge_20_16_choose_one: y_s72_i20_j16_k0 + y_s72_i20_j16_k1
   + y_s72_i20_j16_k2 = 1
 rec_s72_edge_21_24_choose_one: y_s72_i21_j24_k0 + y_s72_i21_j24_k1
   + y_s72_i21_j24_k2 = 1
 rec_s72_edge_22_21_choose_one: y_s72_i22_j21_k0 + y_s72_i22_j21_k1
   + y_s72_i22_j21_k2 = 1
 rec_s72_edge_23_46_choose_one: y_s72_i23_j46_k0 + y_s72_i23_j46_k1
   + y_s72_i23_j46_k2 = 1
 rec_s72_edge_24_23_choose_one: y_s72_i24_j23_k0 + y_s72_i24_j23_k1
   + y_s72_i24_j23_k2 = 1
 rec_s72_edge_25_31_choose_one: y_s72_i25_j31_k0 + y_s72_i25_j31_k1
   + y_s72_i25_j31_k2 = 1
 rec_s72_edge_26_27_choose_one: y_s72_i26_j27_k0 + y_s72_i26_j27_k1
   + y_s72_i26_j27_k2 = 1
 rec_s72_edge_27_28_choose_one: y_s72_i27_j28_k0 + y_s72_i27_j28_k1
   + y_s72_i27_j28_k2 = 1
 rec_s72_edge_28_25_choose_one: y_s72_i28_j25_k0 + y_s72_i28_j25_k1
   + y_s72_i28_j25_k2 = 1
 rec_s72_edge_29_7_choose_one: y_s72_i29_j7_k0 + y_s72_i29_j7_k1
   + y_s72_i29_j7_k2 = 1
 rec_s72_edge_30_29_choose_one: y_s72_i30_j29_k0 + y_s72_i30_j29_k1
   + y_s72_i30_j29_k2 = 1
 rec_s72_edge_31_30_choose_one: y_s72_i31_j30_k0 + y_s72_i31_j30_k1
   + y_s72_i31_j30_k2 = 1
 rec_s72_edge_32_40_choose_one: y_s72_i32_j40_k0 + y_s72_i32_j40_k1
   + y_s72_i32_j40_k2 = 1
 rec_s72_edge_33_35_choose_one: y_s72_i33_j35_k0 + y_s72_i33_j35_k1
   + y_s72_i33_j35_k2 = 1
 rec_s72_edge_34_33_choose_one: y_s72_i34_j33_k0 + y_s72_i34_j33_k1
   + y_s72_i34_j33_k2 = 1
 rec_s72_edge_35_32_choose_one: y_s72_i35_j32_k0 + y_s72_i35_j32_k1
   + y_s72_i35_j32_k2 = 1
 rec_s72_edge_36_49_choose_one: y_s72_i36_j49_k0 + y_s72_i36_j49_k1
   + y_s72_i36_j49_k2 = 1
 rec_s72_edge_37_39_choose_one: y_s72_i37_j39_k0 + y_s72_i37_j39_k1
   + y_s72_i37_j39_k2 = 1
 rec_s72_edge_38_15_choose_one: y_s72_i38_j15_k0 + y_s72_i38_j15_k1
   + y_s72_i38_j15_k2 = 1
 rec_s72_edge_39_53_choose_one: y_s72_i39_j53_k0 + y_s72_i39_j53_k1
   + y_s72_i39_j53_k2 = 1
 rec_s72_edge_40_37_choose_one: y_s72_i40_j37_k0 + y_s72_i40_j37_k1
   + y_s72_i40_j37_k2 = 1
 rec_s72_edge_41_4_choose_one: y_s72_i41_j4_k0 + y_s72_i41_j4_k1
   + y_s72_i41_j4_k2 = 1
 rec_s72_edge_42_44_choose_one: y_s72_i42_j44_k0 + y_s72_i42_j44_k1
   + y_s72_i42_j44_k2 = 1
 rec_s72_edge_43_19_choose_one: y_s72_i43_j19_k0 + y_s72_i43_j19_k1
   + y_s72_i43_j19_k2 = 1
 rec_s72_edge_44_50_choose_one: y_s72_i44_j50_k0 + y_s72_i44_j50_k1
   + y_s72_i44_j50_k2 = 1
 rec_s72_edge_45_18_choose_one: y_s72_i45_j18_k0 + y_s72_i45_j18_k1
   + y_s72_i45_j18_k2 = 1
 rec_s72_edge_46_42_choose_one: y_s72_i46_j42_k0 + y_s72_i46_j42_k1
   + y_s72_i46_j42_k2 = 1
 rec_s72_edge_47_41_choose_one: y_s72_i47_j41_k0 + y_s72_i47_j41_k1
   + y_s72_i47_j41_k2 = 1
 rec_s72_edge_48_51_choose_one: y_s72_i48_j51_k0 + y_s72_i48_j51_k1
   + y_s72_i48_j51_k2 = 1
 rec_s72_edge_49_26_choose_one: y_s72_i49_j26_k0 + y_s72_i49_j26_k1
   + y_s72_i49_j26_k2 = 1
 rec_s72_edge_50_48_choose_one: y_s72_i50_j48_k0 + y_s72_i50_j48_k1
   + y_s72_i50_j48_k2 = 1
 rec_s72_edge_51_36_choose_one: y_s72_i51_j36_k0 + y_s72_i51_j36_k1
   + y_s72_i51_j36_k2 = 1
 rec_s72_edge_52_47_choose_one: y_s72_i52_j47_k0 + y_s72_i52_j47_k1
   + y_s72_i52_j47_k2 = 1
 rec_s72_edge_53_43_choose_one: y_s72_i53_j43_k0 + y_s72_i53_j43_k1
   + y_s72_i53_j43_k2 = 1
 budget_K: 0.08 y_s67_i0_j2_k0 - 0.38 y_s67_i0_j2_k1 + 1.74 y_s67_i0_j2_k2
   - 3.48 y_s67_i1_j22_k0 - 4.46 y_s67_i1_j22_k1 - 5.4 y_s67_i1_j22_k2
   - 0.45 y_s67_i2_j1_k0 - 1.33 y_s67_i2_j1_k1 - 1.4 y_s67_i2_j1_k2
   - 0.36 y_s67_i3_j9_k0 + 36.25 y_s67_i3_j9_k1 - 9.41 y_s67_i3_j9_k2
   - 15.49 y_s67_i4_j34_k0 - 19.33 y_s67_i4_j34_k1 - 16.19 y_s67_i4_j34_k2
   + 29.06 y_s67_i5_j0_k0 - 5.94 y_s67_i5_j0_k1 - 6.01 y_s67_i5_j0_k2
   - 5.94 y_s67_i6_j52_k0 + 6.05 y_s67_i6_j52_k1 - 6.49 y_s67_i6_j52_k2
   - 2.2 y_s67_i7_j3_k0 - 0.71 y_s67_i7_j3_k1 - 3.06 y_s67_i7_j3_k2
   - 3.82 y_s67_i8_j10_k0 - 4.95 y_s67_i8_j10_k1 - 4.13 y_s67_i8_j10_k2
   - 10.36 y_s67_i9_j6_k0 - 6.44 y_s67_i9_j6_k1 + 74.61 y_s67_i9_j6_k2
   - 4.96 y_s67_i10_j5_k0 + 0.81 y_s67_i10_j5_k1 - 4.55 y_s67_i10_j5_k2
   - 3.63 y_s67_i11_j8_k0 + 1.93 y_s67_i11_j8_k1 - 2.16 y_s67_i11_j8_k2
   + 0.57 y_s67_i12_j11_k0 + 6.94 y_s67_i12_j11_k1 - 1.61 y_s67_i12_j11_k2
   + 0.29 y_s67_i13_j14_k0 - 2.72 y_s67_i13_j14_k1 + 4.86 y_s67_i13_j14_k2
   - 9.04 y_s67_i14_j12_k0 - 6.38 y_s67_i14_j12_k1 - 3.99 y_s67_i14_j12_k2
   - 9.3 y_s67_i15_j13_k0 + 71.77 y_s67_i15_j13_k1 - 11.18 y_s67_i15_j13_k2
   - 2.11 y_s67_i16_j17_k0 - 4.88 y_s67_i16_j17_k1 - 4.02 y_s67_i16_j17_k2
   + 9.61 y_s67_i17_j38_k0 - 2.12 y_s67_i17_j38_k1 - 0.82 y_s67_i17_j38_k2
   - 0.7 y_s67_i18_j20_k0 + 6.67 y_s67_i18_j20_k1 - 0.35 y_s67_i18_j20_k2
   - 1.97 y_s67_i19_j45_k0 - 2.15 y_s67_i19_j45_k1 - 1.86 y_s67_i19_j45_k2
   - 13.41 y_s67_i20_j16_k0 - 12.95 y_s67_i20_j16_k1 - 6.8 y_s67_i20_j16_k2
   - 4.69 y_s67_i21_j24_k0 - 2.98 y_s67_i21_j24_k1 + 26.98 y_s67_i21_j24_k2
   - 0.88 y_s67_i22_j21_k0 + 9.91 y_s67_i22_j21_k1 + 6.28 y_s67_i22_j21_k2
   - 8.62 y_s67_i23_j46_k0 - 12.6 y_s67_i23_j46_k1 - 2.28 y_s67_i23_j46_k2
   - 0.4 y_s67_i24_j23_k0 + 1.03 y_s67_i24_j23_k1 - 2.67 y_s67_i24_j23_k2
   - 5.17 y_s67_i25_j31_k0 - 5.76 y_s67_i25_j31_k1 + 18.54 y_s67_i25_j31_k2
   - 2.6 y_s67_i26_j27_k0 - 1.95 y_s67_i26_j27_k1 - 2.73 y_s67_i26_j27_k2
   + 18.89 y_s67_i27_j28_k0 - 6.83 y_s67_i27_j28_k1 - 7.9 y_s67_i27_j28_k2
   - 4.96 y_s67_i28_j25_k0 + 1.58 y_s67_i28_j25_k1 - 6.31 y_s67_i28_j25_k2
   - 1.9 y_s67_i29_j7_k0 + 86.18 y_s67_i29_j7_k1 - 5.74 y_s67_i29_j7_k2
   - 1.04 y_s67_i30_j29_k0 + 2.31 y_s67_i30_j29_k1 - 2.83 y_s67_i30_j29_k2
   + 2.01 y_s67_i31_j30_k0 - 3.84 y_s67_i31_j30_k1 - 1.77 y_s67_i31_j30_k2
   - 32.33 y_s67_i32_j40_k0 + 34.16 y_s67_i32_j40_k1
   - 28.42 y_s67_i32_j40_k2 - 4.46 y_s67_i33_j35_k0 - 3.6 y_s67_i33_j35_k1
   - 5.21 y_s67_i33_j35_k2 - 12.17 y_s67_i34_j33_k0 + 0.1 y_s67_i34_j33_k1
   - 12.51 y_s67_i34_j33_k2 + 8.79 y_s67_i35_j32_k0
   - 16.72 y_s67_i35_j32_k1 - 10.33 y_s67_i35_j32_k2 - 3 y_s67_i36_j49_k0
   - 3.22 y_s67_i36_j49_k1 - 1.85 y_s67_i36_j49_k2 - 48.67 y_s67_i37_j39_k0
   - 38.75 y_s67_i37_j39_k1 - 43.91 y_s67_i37_j39_k2
   - 8.47 y_s67_i38_j15_k0 + 7.37 y_s67_i38_j15_k1 - 5.3 y_s67_i38_j15_k2
   - 31.64 y_s67_i39_j53_k0 - 18.85 y_s67_i39_j53_k1
   - 14.19 y_s67_i39_j53_k2 - 32.4 y_s67_i40_j37_k0
   - 24.34 y_s67_i40_j37_k1 - 21.98 y_s67_i40_j37_k2 - 5.62 y_s67_i41_j4_k0
   - 4.39 y_s67_i41_j4_k1 - 4.25 y_s67_i41_j4_k2 - 9.72 y_s67_i42_j44_k0
   - 7.63 y_s67_i42_j44_k1 + 22.84 y_s67_i42_j44_k2 + 4.93 y_s67_i43_j19_k0
   - 13.46 y_s67_i43_j19_k1 - 17.42 y_s67_i43_j19_k2
   + 86.96 y_s67_i44_j50_k0 + 52.99 y_s67_i44_j50_k1
   + 133.81 y_s67_i44_j50_k2 - 2.24 y_s67_i45_j18_k0
   - 4.79 y_s67_i45_j18_k1 - 5.09 y_s67_i45_j18_k2 - 8.21 y_s67_i46_j42_k0
   - 5.74 y_s67_i46_j42_k1 + 6.03 y_s67_i46_j42_k2 - 5.91 y_s67_i47_j41_k0
   - 3.98 y_s67_i47_j41_k1 - 15.44 y_s67_i47_j41_k2
   - 11.21 y_s67_i48_j51_k0 + 14.65 y_s67_i48_j51_k1
   - 9.01 y_s67_i48_j51_k2 + 20.99 y_s67_i49_j26_k0 - 3.92 y_s67_i49_j26_k1
   + 79.88 y_s67_i49_j26_k2 - 9.7 y_s67_i50_j48_k0 - 7.42 y_s67_i50_j48_k1
   - 3.81 y_s67_i50_j48_k2 + 11.53 y_s67_i51_j36_k0
   - 26.51 y_s67_i51_j36_k1 - 2.15 y_s67_i51_j36_k2 - 4.31 y_s67_i52_j47_k0
   - 6.75 y_s67_i52_j47_k1 - 7.6 y_s67_i52_j47_k2 - 2.14 y_s67_i53_j43_k0
   + 0.69 y_s67_i53_j43_k1 - 2.6 y_s67_i53_j43_k2 - 0.97 y_s80_i0_j2_k0
   - 0.49 y_s80_i0_j2_k1 - 0.83 y_s80_i0_j2_k2 - 5.06 y_s80_i1_j22_k0
   - 4.45 y_s80_i1_j22_k1 - 3.71 y_s80_i1_j22_k2 - 0.8 y_s80_i2_j1_k0
   - 1.38 y_s80_i2_j1_k1 - 1.24 y_s80_i2_j1_k2 - 9.29 y_s80_i3_j9_k0
   - 2.55 y_s80_i3_j9_k1 + 2.17 y_s80_i3_j9_k2 + 30.36 y_s80_i4_j34_k0
   - 11.23 y_s80_i4_j34_k1 - 4.59 y_s80_i4_j34_k2 + 4.52 y_s80_i5_j0_k0
   - 4.17 y_s80_i5_j0_k1 - 2.74 y_s80_i5_j0_k2 - 3.33 y_s80_i6_j52_k0
   - 5.09 y_s80_i6_j52_k1 - 8.14 y_s80_i6_j52_k2 - 2.41 y_s80_i7_j3_k0
   - 1.05 y_s80_i7_j3_k1 - 2.7 y_s80_i7_j3_k2 - 4.54 y_s80_i8_j10_k0
   - 5.97 y_s80_i8_j10_k1 - 2.8 y_s80_i8_j10_k2 - 2.67 y_s80_i9_j6_k0
   - 4.59 y_s80_i9_j6_k1 - 6.54 y_s80_i9_j6_k2 - 2.93 y_s80_i10_j5_k0
   - 4.03 y_s80_i10_j5_k1 - 6.83 y_s80_i10_j5_k2 - 3.49 y_s80_i11_j8_k0
   - 2.73 y_s80_i11_j8_k1 - 1.42 y_s80_i11_j8_k2 - 1.06 y_s80_i12_j11_k0
   + 1.57 y_s80_i12_j11_k1 - 0.58 y_s80_i12_j11_k2 + 5.33 y_s80_i13_j14_k0
   - 5.68 y_s80_i13_j14_k1 - 5.25 y_s80_i13_j14_k2 - 10.88 y_s80_i14_j12_k0
   - 6.61 y_s80_i14_j12_k1 - 10.47 y_s80_i14_j12_k2
   - 12.31 y_s80_i15_j13_k0 - 7.38 y_s80_i15_j13_k1 - 1.92 y_s80_i15_j13_k2
   - 7.15 y_s80_i16_j17_k0 - 6.13 y_s80_i16_j17_k1 - 2.68 y_s80_i16_j17_k2
   + 1.31 y_s80_i17_j38_k0 + 8.08 y_s80_i17_j38_k1 - 4.03 y_s80_i17_j38_k2
   + 2.41 y_s80_i18_j20_k0 - 2.14 y_s80_i18_j20_k1 - 2.94 y_s80_i18_j20_k2
   + 0.08 y_s80_i19_j45_k0 - 0.57 y_s80_i19_j45_k1 - 0.63 y_s80_i19_j45_k2
   - 10.79 y_s80_i20_j16_k0 - 11.09 y_s80_i20_j16_k1
   - 12.33 y_s80_i20_j16_k2 - 4.03 y_s80_i21_j24_k0 - 1.67 y_s80_i21_j24_k1
   - 2.42 y_s80_i21_j24_k2 - 5.84 y_s80_i22_j21_k0 - 2.25 y_s80_i22_j21_k1
   - 0.17 y_s80_i22_j21_k2 + 10.99 y_s80_i23_j46_k0 - 8.15 y_s80_i23_j46_k1
   - 10 y_s80_i23_j46_k2 + 0.55 y_s80_i24_j23_k0 - 1.84 y_s80_i24_j23_k1
   - 2.86 y_s80_i24_j23_k2 + 20.18 y_s80_i25_j31_k0
   + 60.14 y_s80_i25_j31_k1 - 4.93 y_s80_i25_j31_k2 - 3.29 y_s80_i26_j27_k0
   - 3.39 y_s80_i26_j27_k1 - 2.33 y_s80_i26_j27_k2 + 7.11 y_s80_i27_j28_k0
   - 7.99 y_s80_i27_j28_k1 - 0.54 y_s80_i27_j28_k2 - 5.62 y_s80_i28_j25_k0
   - 6.38 y_s80_i28_j25_k1 - 3.99 y_s80_i28_j25_k2 - 5.13 y_s80_i29_j7_k0
   + 20.22 y_s80_i29_j7_k1 - 5.89 y_s80_i29_j7_k2 - 2.51 y_s80_i30_j29_k0
   - 2.41 y_s80_i30_j29_k1 - 0.18 y_s80_i30_j29_k2 - 3.49 y_s80_i31_j30_k0
   + 1.99 y_s80_i31_j30_k1 - 2.76 y_s80_i31_j30_k2 - 32.88 y_s80_i32_j40_k0
   - 21.49 y_s80_i32_j40_k1 - 15.8 y_s80_i32_j40_k2 - 6.1 y_s80_i33_j35_k0
   + 4.74 y_s80_i33_j35_k1 - 6.36 y_s80_i33_j35_k2 - 12.74 y_s80_i34_j33_k0
   + 115.7 y_s80_i34_j33_k1 + 2.16 y_s80_i34_j33_k2 - 3.03 y_s80_i35_j32_k0
   - 14.51 y_s80_i35_j32_k1 - 8.21 y_s80_i35_j32_k2 - 2.27 y_s80_i36_j49_k0
   - 0.07 y_s80_i36_j49_k1 - 2.09 y_s80_i36_j49_k2 - 16.74 y_s80_i37_j39_k0
   + 409.43 y_s80_i37_j39_k1 + 49.23 y_s80_i37_j39_k2
   - 3.67 y_s80_i38_j15_k0 - 6.52 y_s80_i38_j15_k1 - 5.53 y_s80_i38_j15_k2
   + 208.11 y_s80_i39_j53_k0 + 110.32 y_s80_i39_j53_k1
   + 66.48 y_s80_i39_j53_k2 - 0.11 y_s80_i40_j37_k0 + 0.04 y_s80_i40_j37_k1
   - 26.36 y_s80_i40_j37_k2 + 11.99 y_s80_i41_j4_k0 - 0.71 y_s80_i41_j4_k1
   - 5.07 y_s80_i41_j4_k2 - 0.36 y_s80_i42_j44_k0 - 12.01 y_s80_i42_j44_k1
   - 5.39 y_s80_i42_j44_k2 - 3.08 y_s80_i43_j19_k0 - 16.37 y_s80_i43_j19_k1
   - 9.58 y_s80_i43_j19_k2 - 25.3 y_s80_i44_j50_k0 + 79.73 y_s80_i44_j50_k1
   + 24.93 y_s80_i44_j50_k2 + 4.78 y_s80_i45_j18_k0 + 1.66 y_s80_i45_j18_k1
   - 9.7 y_s80_i45_j18_k2 - 3.56 y_s80_i46_j42_k0 - 9.26 y_s80_i46_j42_k1
   - 7.46 y_s80_i46_j42_k2 + 7.04 y_s80_i47_j41_k0 - 11.22 y_s80_i47_j41_k1
   - 4.77 y_s80_i47_j41_k2 - 5.91 y_s80_i48_j51_k0 + 5.1 y_s80_i48_j51_k1
   - 0.66 y_s80_i48_j51_k2 - 5.02 y_s80_i49_j26_k0 - 6.18 y_s80_i49_j26_k1
   - 2.45 y_s80_i49_j26_k2 - 10.71 y_s80_i50_j48_k0 - 14.2 y_s80_i50_j48_k1
   - 1.63 y_s80_i50_j48_k2 - 22.64 y_s80_i51_j36_k0
   - 26.46 y_s80_i51_j36_k1 - 15.33 y_s80_i51_j36_k2
   - 3.49 y_s80_i52_j47_k0 - 8.22 y_s80_i52_j47_k1 + 11.34 y_s80_i52_j47_k2
   - 6.49 y_s80_i53_j43_k0 - 6.43 y_s80_i53_j43_k1 - 4.88 y_s80_i53_j43_k2
   - 0.83 y_s55_i0_j2_k0 + 4.46 y_s55_i0_j2_k1 - 1.12 y_s55_i0_j2_k2
   - 6.54 y_s55_i1_j22_k0 + 3.65 y_s55_i1_j22_k1 - 6.18 y_s55_i1_j22_k2
   - 0.97 y_s55_i2_j1_k0 + 0.43 y_s55_i2_j1_k1 - 1.33 y_s55_i2_j1_k2
   - 12.38 y_s55_i3_j9_k0 - 4.48 y_s55_i3_j9_k1 - 4.38 y_s55_i3_j9_k2
   - 8.68 y_s55_i4_j34_k0 - 17.43 y_s55_i4_j34_k1 - 2.31 y_s55_i4_j34_k2
   + 0.97 y_s55_i5_j0_k0 - 4.51 y_s55_i5_j0_k1 - 5.69 y_s55_i5_j0_k2
   - 6.54 y_s55_i6_j52_k0 + 25.54 y_s55_i6_j52_k1 + 9.74 y_s55_i6_j52_k2
   + 5.1 y_s55_i7_j3_k0 - 2.99 y_s55_i7_j3_k1 + 11.83 y_s55_i7_j3_k2
   + 4.93 y_s55_i8_j10_k0 - 4.71 y_s55_i8_j10_k1 - 3.44 y_s55_i8_j10_k2
   - 10.07 y_s55_i9_j6_k0 + 2.55 y_s55_i9_j6_k1 - 1.64 y_s55_i9_j6_k2
   + 6.62 y_s55_i10_j5_k0 - 6.73 y_s55_i10_j5_k1 - 4.94 y_s55_i10_j5_k2
   - 3.67 y_s55_i11_j8_k0 - 1.9 y_s55_i11_j8_k1 - 0.41 y_s55_i11_j8_k2
   - 2.01 y_s55_i12_j11_k0 - 0.08 y_s55_i12_j11_k1 - 1.6 y_s55_i12_j11_k2
   - 2.57 y_s55_i13_j14_k0 - 5.96 y_s55_i13_j14_k1 - 2.29 y_s55_i13_j14_k2
   - 2.43 y_s55_i14_j12_k0 - 7.38 y_s55_i14_j12_k1 - 8.34 y_s55_i14_j12_k2
   - 13.19 y_s55_i15_j13_k0 - 7.54 y_s55_i15_j13_k1 - 4.44 y_s55_i15_j13_k2
   - 3.02 y_s55_i16_j17_k0 - 4.6 y_s55_i16_j17_k1 - 5.28 y_s55_i16_j17_k2
   - 1.85 y_s55_i17_j38_k0 + 1.72 y_s55_i17_j38_k1 - 5.51 y_s55_i17_j38_k2
   - 2.62 y_s55_i18_j20_k0 + 1.85 y_s55_i18_j20_k1 + 0.38 y_s55_i18_j20_k2
   - 1.1 y_s55_i19_j45_k0 - 2.49 y_s55_i19_j45_k1 - 2.44 y_s55_i19_j45_k2
   + 10.38 y_s55_i20_j16_k0 - 7.75 y_s55_i20_j16_k1
   - 12.93 y_s55_i20_j16_k2 - 3.55 y_s55_i21_j24_k0
   + 11.12 y_s55_i21_j24_k1 + 0.27 y_s55_i21_j24_k2 - 5.68 y_s55_i22_j21_k0
   - 4.94 y_s55_i22_j21_k1 - 5.1 y_s55_i22_j21_k2 - 11.96 y_s55_i23_j46_k0
   - 11.57 y_s55_i23_j46_k1 - 11.28 y_s55_i23_j46_k2
   - 2.21 y_s55_i24_j23_k0 - 2.36 y_s55_i24_j23_k1 - 3.6 y_s55_i24_j23_k2
   - 5.32 y_s55_i25_j31_k0 + 18.39 y_s55_i25_j31_k1 - 5.04 y_s55_i25_j31_k2
   - 0.76 y_s55_i26_j27_k0 - 3.86 y_s55_i26_j27_k1 - 2.19 y_s55_i26_j27_k2
   + 4.53 y_s55_i27_j28_k0 - 9 y_s55_i27_j28_k1 - 8.34 y_s55_i27_j28_k2
   - 6 y_s55_i28_j25_k0 + 0.22 y_s55_i28_j25_k1 - 3.82 y_s55_i28_j25_k2
   + 26.07 y_s55_i29_j7_k0 - 5.74 y_s55_i29_j7_k1 - 4.91 y_s55_i29_j7_k2
   + 11.32 y_s55_i30_j29_k0 - 2.84 y_s55_i30_j29_k1 - 1.41 y_s55_i30_j29_k2
   - 4.32 y_s55_i31_j30_k0 - 3.74 y_s55_i31_j30_k1 - 1.55 y_s55_i31_j30_k2
   + 162.46 y_s55_i32_j40_k0 - 36.52 y_s55_i32_j40_k1
   + 181.25 y_s55_i32_j40_k2 - 1.87 y_s55_i33_j35_k0 - 3.1 y_s55_i33_j35_k1
   + 21.59 y_s55_i33_j35_k2 + 10.3 y_s55_i34_j33_k0
   + 13.96 y_s55_i34_j33_k1 - 10.1 y_s55_i34_j33_k2 - 5.02 y_s55_i35_j32_k0
   - 13.77 y_s55_i35_j32_k1 + 122.99 y_s55_i35_j32_k2
   + 7.22 y_s55_i36_j49_k0 - 0.56 y_s55_i36_j49_k1 + 0.7 y_s55_i36_j49_k2
   + 502.7 y_s55_i37_j39_k0 - 40.99 y_s55_i37_j39_k1
   + 48.69 y_s55_i37_j39_k2 - 4.73 y_s55_i38_j15_k0 + 3.51 y_s55_i38_j15_k1
   - 4.35 y_s55_i38_j15_k2 + 34.15 y_s55_i39_j53_k0
   - 32.01 y_s55_i39_j53_k1 - 36.23 y_s55_i39_j53_k2
   - 27.94 y_s55_i40_j37_k0 + 321.39 y_s55_i40_j37_k1
   - 28.67 y_s55_i40_j37_k2 - 5.69 y_s55_i41_j4_k0 - 2.38 y_s55_i41_j4_k1
   - 2.65 y_s55_i41_j4_k2 - 5.73 y_s55_i42_j44_k0 - 8.43 y_s55_i42_j44_k1
   - 1.7 y_s55_i42_j44_k2 - 10.12 y_s55_i43_j19_k0 + 8.82 y_s55_i43_j19_k1
   - 14.28 y_s55_i43_j19_k2 + 22.08 y_s55_i44_j50_k0
   + 102.49 y_s55_i44_j50_k1 + 39.53 y_s55_i44_j50_k2
   - 7.98 y_s55_i45_j18_k0 + 16.31 y_s55_i45_j18_k1 - 3.35 y_s55_i45_j18_k2
   - 7.39 y_s55_i46_j42_k0 - 7.54 y_s55_i46_j42_k1 - 8.41 y_s55_i46_j42_k2
   - 14.79 y_s55_i47_j41_k0 - 17.1 y_s55_i47_j41_k1
   + 94.81 y_s55_i47_j41_k2 + 11.67 y_s55_i48_j51_k0
   + 0.13 y_s55_i48_j51_k1 - 8.04 y_s55_i48_j51_k2 - 6.64 y_s55_i49_j26_k0
   - 6.27 y_s55_i49_j26_k1 - 5.78 y_s55_i49_j26_k2 - 12.91 y_s55_i50_j48_k0
   - 14.32 y_s55_i50_j48_k1 - 6.7 y_s55_i50_j48_k2 - 0.14 y_s55_i51_j36_k0
   - 24.76 y_s55_i51_j36_k1 - 12.06 y_s55_i51_j36_k2
   + 4.58 y_s55_i52_j47_k0 - 8.1 y_s55_i52_j47_k1 - 8.97 y_s55_i52_j47_k2
   - 7.31 y_s55_i53_j43_k0 - 6.4 y_s55_i53_j43_k1 - 2.69 y_s55_i53_j43_k2
   - 1.11 y_s4_i0_j2_k0 + 0.86 y_s4_i0_j2_k1 - 0.59 y_s4_i0_j2_k2
   + 2.79 y_s4_i1_j22_k0 - 4.34 y_s4_i1_j22_k1 - 5.19 y_s4_i1_j22_k2
   - 1.17 y_s4_i2_j1_k0 - 0.99 y_s4_i2_j1_k1 - 1.17 y_s4_i2_j1_k2
   + 18.79 y_s4_i3_j9_k0 - 5.94 y_s4_i3_j9_k1 - 12.77 y_s4_i3_j9_k2
   + 23.25 y_s4_i4_j34_k0 - 18.6 y_s4_i4_j34_k1 - 18.24 y_s4_i4_j34_k2
   - 2.13 y_s4_i5_j0_k0 + 22.06 y_s4_i5_j0_k1 - 1.68 y_s4_i5_j0_k2
   - 9.29 y_s4_i6_j52_k0 - 4.57 y_s4_i6_j52_k1 + 9.78 y_s4_i6_j52_k2
   - 2.51 y_s4_i7_j3_k0 - 3.33 y_s4_i7_j3_k1 - 3.09 y_s4_i7_j3_k2
   - 3.45 y_s4_i8_j10_k0 + 0.17 y_s4_i8_j10_k1 - 5.38 y_s4_i8_j10_k2
   - 5.17 y_s4_i9_j6_k0 - 3.09 y_s4_i9_j6_k1 + 0.75 y_s4_i9_j6_k2
   - 1.45 y_s4_i10_j5_k0 - 2.96 y_s4_i10_j5_k1 + 0.39 y_s4_i10_j5_k2
   + 6.2 y_s4_i11_j8_k0 - 3.48 y_s4_i11_j8_k1 - 0.99 y_s4_i11_j8_k2
   - 1.71 y_s4_i12_j11_k0 - 1.75 y_s4_i12_j11_k1 - 1.95 y_s4_i12_j11_k2
   + 30.07 y_s4_i13_j14_k0 - 2.62 y_s4_i13_j14_k1 - 3.42 y_s4_i13_j14_k2
   - 9.01 y_s4_i14_j12_k0 + 1.33 y_s4_i14_j12_k1 - 10.27 y_s4_i14_j12_k2
   + 32.86 y_s4_i15_j13_k0 - 11.83 y_s4_i15_j13_k1 + 12.55 y_s4_i15_j13_k2
   + 0.19 y_s4_i16_j17_k0 - 3.72 y_s4_i16_j17_k1 - 6.91 y_s4_i16_j17_k2
   - 2.04 y_s4_i17_j38_k0 - 1.07 y_s4_i17_j38_k1 - 4.94 y_s4_i17_j38_k2
   + 1.38 y_s4_i18_j20_k0 - 2.76 y_s4_i18_j20_k1 - 2.65 y_s4_i18_j20_k2
   + 0.15 y_s4_i19_j45_k0 - 1.93 y_s4_i19_j45_k1 - 0.11 y_s4_i19_j45_k2
   + 14.26 y_s4_i20_j16_k0 + 9.58 y_s4_i20_j16_k1 + 74.01 y_s4_i20_j16_k2
   - 2.19 y_s4_i21_j24_k0 - 3.22 y_s4_i21_j24_k1 - 0.36 y_s4_i21_j24_k2
   + 1.28 y_s4_i22_j21_k0 - 6.51 y_s4_i22_j21_k1 - 4.98 y_s4_i22_j21_k2
   - 5.2 y_s4_i23_j46_k0 - 9.47 y_s4_i23_j46_k1 - 10.37 y_s4_i23_j46_k2
   - 2.55 y_s4_i24_j23_k0 - 2.38 y_s4_i24_j23_k1 - 2.99 y_s4_i24_j23_k2
   - 3.18 y_s4_i25_j31_k0 - 5.55 y_s4_i25_j31_k1 - 5.27 y_s4_i25_j31_k2
   - 0.62 y_s4_i26_j27_k0 - 1.58 y_s4_i26_j27_k1 - 1.88 y_s4_i26_j27_k2
   - 8.33 y_s4_i27_j28_k0 - 2.72 y_s4_i27_j28_k1 + 44.64 y_s4_i27_j28_k2
   - 2.89 y_s4_i28_j25_k0 - 4.88 y_s4_i28_j25_k1 - 3.03 y_s4_i28_j25_k2
   - 4.81 y_s4_i29_j7_k0 - 0.47 y_s4_i29_j7_k1 - 6.7 y_s4_i29_j7_k2
   - 2.69 y_s4_i30_j29_k0 + 10.29 y_s4_i30_j29_k1 + 3.78 y_s4_i30_j29_k2
   - 1.6 y_s4_i31_j30_k0 + 1.05 y_s4_i31_j30_k1 - 2.45 y_s4_i31_j30_k2
   - 29 y_s4_i32_j40_k0 - 33.62 y_s4_i32_j40_k1 - 19.81 y_s4_i32_j40_k2
   - 7.05 y_s4_i33_j35_k0 - 5.89 y_s4_i33_j35_k1 - 6.76 y_s4_i33_j35_k2
   - 11.73 y_s4_i34_j33_k0 - 6.48 y_s4_i34_j33_k1 + 8.12 y_s4_i34_j33_k2
   - 8.81 y_s4_i35_j32_k0 - 9.25 y_s4_i35_j32_k1 + 39.87 y_s4_i35_j32_k2
   - 2.74 y_s4_i36_j49_k0 - 1.86 y_s4_i36_j49_k1 - 2.63 y_s4_i36_j49_k2
   - 33.58 y_s4_i37_j39_k0 - 41.63 y_s4_i37_j39_k1 - 38.13 y_s4_i37_j39_k2
   - 9.35 y_s4_i38_j15_k0 - 5.79 y_s4_i38_j15_k1 - 5.22 y_s4_i38_j15_k2
   - 33.27 y_s4_i39_j53_k0 - 16.64 y_s4_i39_j53_k1 - 9.21 y_s4_i39_j53_k2
   + 13.39 y_s4_i40_j37_k0 - 32.24 y_s4_i40_j37_k1 - 21.71 y_s4_i40_j37_k2
   - 0.52 y_s4_i41_j4_k0 - 6.15 y_s4_i41_j4_k1 + 3.34 y_s4_i41_j4_k2
   - 2.79 y_s4_i42_j44_k0 - 9.9 y_s4_i42_j44_k1 - 8.89 y_s4_i42_j44_k2
   + 1.11 y_s4_i43_j19_k0 - 5.24 y_s4_i43_j19_k1 + 55.22 y_s4_i43_j19_k2
   - 11.73 y_s4_i44_j50_k0 - 36.57 y_s4_i44_j50_k1 - 21.51 y_s4_i44_j50_k2
   - 2.84 y_s4_i45_j18_k0 - 6.09 y_s4_i45_j18_k1 - 9.37 y_s4_i45_j18_k2
   - 9.86 y_s4_i46_j42_k0 - 2.02 y_s4_i46_j42_k1 - 8.65 y_s4_i46_j42_k2
   + 45.55 y_s4_i47_j41_k0 + 17.41 y_s4_i47_j41_k1 - 1.36 y_s4_i47_j41_k2
   - 5.63 y_s4_i48_j51_k0 + 54.06 y_s4_i48_j51_k1 - 9.46 y_s4_i48_j51_k2
   - 5.85 y_s4_i49_j26_k0 - 0.48 y_s4_i49_j26_k1 - 3.97 y_s4_i49_j26_k2
   + 6.4 y_s4_i50_j48_k0 - 14.62 y_s4_i50_j48_k1 - 13.36 y_s4_i50_j48_k2
   - 25.42 y_s4_i51_j36_k0 - 22.42 y_s4_i51_j36_k1 - 23.68 y_s4_i51_j36_k2
   + 4.3 y_s4_i52_j47_k0 - 7.36 y_s4_i52_j47_k1 - 8.38 y_s4_i52_j47_k2
   - 4.17 y_s4_i53_j43_k0 - 4.27 y_s4_i53_j43_k1 - 6.21 y_s4_i53_j43_k2
   + 0.39 y_s5_i0_j2_k0 - 0.79 y_s5_i0_j2_k1 + 4.31 y_s5_i0_j2_k2
   + 3.52 y_s5_i1_j22_k0 + 13.26 y_s5_i1_j22_k1 + 15.51 y_s5_i1_j22_k2
   - 1.38 y_s5_i2_j1_k0 - 0.81 y_s5_i2_j1_k1 - 1.36 y_s5_i2_j1_k2
   + 0.48 y_s5_i3_j9_k0 - 1.25 y_s5_i3_j9_k1 - 4.06 y_s5_i3_j9_k2
   - 4.11 y_s5_i4_j34_k0 - 0.02 y_s5_i4_j34_k1 - 15.75 y_s5_i4_j34_k2
   - 5.6 y_s5_i5_j0_k0 - 5.77 y_s5_i5_j0_k1 - 3.92 y_s5_i5_j0_k2
   - 8.23 y_s5_i6_j52_k0 + 5.53 y_s5_i6_j52_k1 - 5.44 y_s5_i6_j52_k2
   - 2.83 y_s5_i7_j3_k0 + 4.14 y_s5_i7_j3_k1 - 0.56 y_s5_i7_j3_k2
   + 0.65 y_s5_i8_j10_k0 - 2.76 y_s5_i8_j10_k1 - 5.46 y_s5_i8_j10_k2
   + 1.14 y_s5_i9_j6_k0 + 0.98 y_s5_i9_j6_k1 + 108.98 y_s5_i9_j6_k2
   - 4.47 y_s5_i10_j5_k0 - y_s5_i10_j5_k1 - 4.05 y_s5_i10_j5_k2
   - 3.26 y_s5_i11_j8_k0 - 1.8 y_s5_i11_j8_k1 - 4.04 y_s5_i11_j8_k2
   - 1.33 y_s5_i12_j11_k0 - 1.33 y_s5_i12_j11_k1 - 1.59 y_s5_i12_j11_k2
   + 3.4 y_s5_i13_j14_k0 + 1.91 y_s5_i13_j14_k1 - 5.92 y_s5_i13_j14_k2
   - 10.74 y_s5_i14_j12_k0 - 8.89 y_s5_i14_j12_k1 - 9.83 y_s5_i14_j12_k2
   + 1.77 y_s5_i15_j13_k0 - 7.42 y_s5_i15_j13_k1 - 2.48 y_s5_i15_j13_k2
   + 23.09 y_s5_i16_j17_k0 - 5.95 y_s5_i16_j17_k1 - 7.22 y_s5_i16_j17_k2
   - 5.74 y_s5_i17_j38_k0 + 5.95 y_s5_i17_j38_k1 + 5.48 y_s5_i17_j38_k2
   + 0.83 y_s5_i18_j20_k0 - 1.99 y_s5_i18_j20_k1 - 3.11 y_s5_i18_j20_k2
   + 2.06 y_s5_i19_j45_k0 + 0.33 y_s5_i19_j45_k1 - 1.81 y_s5_i19_j45_k2
   + 4.31 y_s5_i20_j16_k0 - 12.8 y_s5_i20_j16_k1 - 11.44 y_s5_i20_j16_k2
   - 2.51 y_s5_i21_j24_k0 - 4.24 y_s5_i21_j24_k1 - 0.92 y_s5_i21_j24_k2
   - 1.82 y_s5_i22_j21_k0 + 1.51 y_s5_i22_j21_k1 - 5.26 y_s5_i22_j21_k2
   - 9.13 y_s5_i23_j46_k0 - 3.95 y_s5_i23_j46_k1 - 10.88 y_s5_i23_j46_k2
   - 3.38 y_s5_i24_j23_k0 - 3.13 y_s5_i24_j23_k1 - 3.85 y_s5_i24_j23_k2
   - 5.84 y_s5_i25_j31_k0 - 6.34 y_s5_i25_j31_k1 - 5.61 y_s5_i25_j31_k2
   - 1.36 y_s5_i26_j27_k0 - 2.51 y_s5_i26_j27_k1 - 3.61 y_s5_i26_j27_k2
   - 3.15 y_s5_i27_j28_k0 - 7.64 y_s5_i27_j28_k1 + 27.42 y_s5_i27_j28_k2
   - 3.84 y_s5_i28_j25_k0 - 1.3 y_s5_i28_j25_k1 - 5.23 y_s5_i28_j25_k2
   + 7.6 y_s5_i29_j7_k0 + 14.14 y_s5_i29_j7_k1 - 8.31 y_s5_i29_j7_k2
   + 2.53 y_s5_i30_j29_k0 - 1.15 y_s5_i30_j29_k1 - 2.65 y_s5_i30_j29_k2
   - 2.43 y_s5_i31_j30_k0 - 1.08 y_s5_i31_j30_k1 - 2.44 y_s5_i31_j30_k2
   - 36.74 y_s5_i32_j40_k0 - 15.11 y_s5_i32_j40_k1 - 35.74 y_s5_i32_j40_k2
   - 6.18 y_s5_i33_j35_k0 + 44.42 y_s5_i33_j35_k1 - 6.52 y_s5_i33_j35_k2
   - 13.35 y_s5_i34_j33_k0 - 11.33 y_s5_i34_j33_k1 - 6.99 y_s5_i34_j33_k2
   - 15.28 y_s5_i35_j32_k0 - 12.38 y_s5_i35_j32_k1 - 8.37 y_s5_i35_j32_k2
   - 1.15 y_s5_i36_j49_k0 + 45.12 y_s5_i36_j49_k1 + 6.01 y_s5_i36_j49_k2
   - 43.84 y_s5_i37_j39_k0 - 32.18 y_s5_i37_j39_k1 + 17.63 y_s5_i37_j39_k2
   - 5.11 y_s5_i38_j15_k0 - 2.46 y_s5_i38_j15_k1 - 5.32 y_s5_i38_j15_k2
   - 27.97 y_s5_i39_j53_k0 + 277.77 y_s5_i39_j53_k1 - 9.34 y_s5_i39_j53_k2
   + 213.86 y_s5_i40_j37_k0 + 13 y_s5_i40_j37_k1 - 28.48 y_s5_i40_j37_k2
   - 1.72 y_s5_i41_j4_k0 - 3.98 y_s5_i41_j4_k1 - 4.55 y_s5_i41_j4_k2
   - 11.49 y_s5_i42_j44_k0 + 1.24 y_s5_i42_j44_k1 - 11.6 y_s5_i42_j44_k2
   - 7.72 y_s5_i43_j19_k0 - 5.49 y_s5_i43_j19_k1 + 16.9 y_s5_i43_j19_k2
   - 13.95 y_s5_i44_j50_k0 + 744.46 y_s5_i44_j50_k1 - 17.56 y_s5_i44_j50_k2
   - 7.23 y_s5_i45_j18_k0 + 41.39 y_s5_i45_j18_k1 - 9.71 y_s5_i45_j18_k2
   - 8.18 y_s5_i46_j42_k0 - 9.31 y_s5_i46_j42_k1 - 10.25 y_s5_i46_j42_k2
   + 1.1 y_s5_i47_j41_k0 - 7.52 y_s5_i47_j41_k1 - 13.78 y_s5_i47_j41_k2
   + 1.64 y_s5_i48_j51_k0 + 34.66 y_s5_i48_j51_k1 - 10.61 y_s5_i48_j51_k2
   + 0.21 y_s5_i49_j26_k0 - 6.04 y_s5_i49_j26_k1 - 5.46 y_s5_i49_j26_k2
   - 12.98 y_s5_i50_j48_k0 - 11.21 y_s5_i50_j48_k1 + 59.51 y_s5_i50_j48_k2
   - 18.85 y_s5_i51_j36_k0 - 15.76 y_s5_i51_j36_k1 + 130.96 y_s5_i51_j36_k2
   - 8.45 y_s5_i52_j47_k0 - 0.66 y_s5_i52_j47_k1 - 4.54 y_s5_i52_j47_k2
   - 1.52 y_s5_i53_j43_k0 + 5.07 y_s5_i53_j43_k1 + 0.24 y_s5_i53_j43_k2
   - 1.18 y_s62_i0_j2_k0 - 0.26 y_s62_i0_j2_k1 - 1.04 y_s62_i0_j2_k2
   - 3.73 y_s62_i1_j22_k0 - 4.3 y_s62_i1_j22_k1 - 4.87 y_s62_i1_j22_k2
   - 1.07 y_s62_i2_j1_k0 - 0.98 y_s62_i2_j1_k1 - 1.42 y_s62_i2_j1_k2
   - 11.48 y_s62_i3_j9_k0 - 9.39 y_s62_i3_j9_k1 + 1.73 y_s62_i3_j9_k2
   + 136.3 y_s62_i4_j34_k0 - 16.88 y_s62_i4_j34_k1 - 18.49 y_s62_i4_j34_k2
   - 5.53 y_s62_i5_j0_k0 + 14.88 y_s62_i5_j0_k1 + 22.01 y_s62_i5_j0_k2
   - 5.31 y_s62_i6_j52_k0 + 14 y_s62_i6_j52_k1 + 50.19 y_s62_i6_j52_k2
   - 3.32 y_s62_i7_j3_k0 - 1.06 y_s62_i7_j3_k1 - 2.72 y_s62_i7_j3_k2
   + 31.21 y_s62_i8_j10_k0 - 2.86 y_s62_i8_j10_k1 - 4.58 y_s62_i8_j10_k2
   - 0.14 y_s62_i9_j6_k0 + 19.31 y_s62_i9_j6_k1 - 6.81 y_s62_i9_j6_k2
   - 1.57 y_s62_i10_j5_k0 + 18.15 y_s62_i10_j5_k1 - 2.31 y_s62_i10_j5_k2
   - 0.47 y_s62_i11_j8_k0 - 2.22 y_s62_i11_j8_k1 - 3.33 y_s62_i11_j8_k2
   - 0.77 y_s62_i12_j11_k0 - 1.54 y_s62_i12_j11_k1 - 0.11 y_s62_i12_j11_k2
   + 6.28 y_s62_i13_j14_k0 - 6.2 y_s62_i13_j14_k1 + 12.54 y_s62_i13_j14_k2
   - 10.75 y_s62_i14_j12_k0 + 12.79 y_s62_i14_j12_k1
   - 4.23 y_s62_i14_j12_k2 - 12.77 y_s62_i15_j13_k0
   - 10.59 y_s62_i15_j13_k1 + 0.92 y_s62_i15_j13_k2 - 2.74 y_s62_i16_j17_k0
   - 4.53 y_s62_i16_j17_k1 - 5.27 y_s62_i16_j17_k2 - 3.51 y_s62_i17_j38_k0
   + 5.31 y_s62_i17_j38_k1 + 2.81 y_s62_i17_j38_k2 - 1.5 y_s62_i18_j20_k0
   - 1.54 y_s62_i18_j20_k1 + 0.52 y_s62_i18_j20_k2 + 0.07 y_s62_i19_j45_k0
   - 1.76 y_s62_i19_j45_k1 - 1.65 y_s62_i19_j45_k2 + 8.97 y_s62_i20_j16_k0
   - 6.1 y_s62_i20_j16_k1 + 38.3 y_s62_i20_j16_k2 - 4.24 y_s62_i21_j24_k0
   - 4.36 y_s62_i21_j24_k1 + 0.05 y_s62_i21_j24_k2 + 26.57 y_s62_i22_j21_k0
   - 6.27 y_s62_i22_j21_k1 - 5.09 y_s62_i22_j21_k2 + 1.03 y_s62_i23_j46_k0
   - 12.4 y_s62_i23_j46_k1 + 12.37 y_s62_i23_j46_k2 + 8.85 y_s62_i24_j23_k0
   - 3.46 y_s62_i24_j23_k1 - 3.24 y_s62_i24_j23_k2 + 0.47 y_s62_i25_j31_k0
   + 0.68 y_s62_i25_j31_k1 - 4.46 y_s62_i25_j31_k2 - 1.8 y_s62_i26_j27_k0
   - 2.9 y_s62_i26_j27_k1 - 3.46 y_s62_i26_j27_k2 + 20.88 y_s62_i27_j28_k0
   - 3.42 y_s62_i27_j28_k1 - 3.3 y_s62_i27_j28_k2 - 0.64 y_s62_i28_j25_k0
   - 2.54 y_s62_i28_j25_k1 - 2.61 y_s62_i28_j25_k2 + 11.54 y_s62_i29_j7_k0
   - 7.5 y_s62_i29_j7_k1 - 7.76 y_s62_i29_j7_k2 - 1.6 y_s62_i30_j29_k0
   - 2.94 y_s62_i30_j29_k1 - 3.52 y_s62_i30_j29_k2 - 2.3 y_s62_i31_j30_k0
   - 3.13 y_s62_i31_j30_k1 + 20.86 y_s62_i31_j30_k2
   - 19.54 y_s62_i32_j40_k0 - 28.99 y_s62_i32_j40_k1
   - 22.73 y_s62_i32_j40_k2 - 5.85 y_s62_i33_j35_k0 - 5.54 y_s62_i33_j35_k1
   - 2.35 y_s62_i33_j35_k2 - 15.31 y_s62_i34_j33_k0 - 8.08 y_s62_i34_j33_k1
   - 12.45 y_s62_i34_j33_k2 - 9.31 y_s62_i35_j32_k0 - 4.71 y_s62_i35_j32_k1
   - 5.58 y_s62_i35_j32_k2 - 1.84 y_s62_i36_j49_k0 + 1.81 y_s62_i36_j49_k1
   + 0.94 y_s62_i36_j49_k2 - 9.19 y_s62_i37_j39_k0 - 46.4 y_s62_i37_j39_k1
   - 15.83 y_s62_i37_j39_k2 + 16.74 y_s62_i38_j15_k0 - 7.7 y_s62_i38_j15_k1
   - 5.47 y_s62_i38_j15_k2 - 6.96 y_s62_i39_j53_k0 - 22.07 y_s62_i39_j53_k1
   + 48.28 y_s62_i39_j53_k2 + 19.38 y_s62_i40_j37_k0
   - 27.49 y_s62_i40_j37_k1 + 35 y_s62_i40_j37_k2 - 5.22 y_s62_i41_j4_k0
   + 24.87 y_s62_i41_j4_k1 - 5.05 y_s62_i41_j4_k2 - 4.06 y_s62_i42_j44_k0
   + 46.46 y_s62_i42_j44_k1 - 11.7 y_s62_i42_j44_k2 + 2.33 y_s62_i43_j19_k0
   - 13.74 y_s62_i43_j19_k1 - 11.36 y_s62_i43_j19_k2
   + 19.64 y_s62_i44_j50_k0 - 36.28 y_s62_i44_j50_k1
   - 36.34 y_s62_i44_j50_k2 - 8.02 y_s62_i45_j18_k0 - 5.99 y_s62_i45_j18_k1
   + 1.68 y_s62_i45_j18_k2 - 5.77 y_s62_i46_j42_k0 - 8.88 y_s62_i46_j42_k1
   + 7.34 y_s62_i46_j42_k2 + 100.06 y_s62_i47_j41_k0
   + 15.05 y_s62_i47_j41_k1 + 10.93 y_s62_i47_j41_k2
   - 11.23 y_s62_i48_j51_k0 - 8.08 y_s62_i48_j51_k1 - 1.35 y_s62_i48_j51_k2
   + 2.63 y_s62_i49_j26_k0 - 5.35 y_s62_i49_j26_k1 - 2.17 y_s62_i49_j26_k2
   - 6.26 y_s62_i50_j48_k0 + 54.29 y_s62_i50_j48_k1 - 10 y_s62_i50_j48_k2
   + 69.49 y_s62_i51_j36_k0 - 26.26 y_s62_i51_j36_k1
   - 22.02 y_s62_i51_j36_k2 - 7.79 y_s62_i52_j47_k0 - 5.36 y_s62_i52_j47_k1
   - 9.56 y_s62_i52_j47_k2 + 9.37 y_s62_i53_j43_k0 - 6.76 y_s62_i53_j43_k1
   - 5.54 y_s62_i53_j43_k2 - 0.28 y_s78_i0_j2_k0 - 0.94 y_s78_i0_j2_k1
   - 0.47 y_s78_i0_j2_k2 + 5.4 y_s78_i1_j22_k0 - 5.2 y_s78_i1_j22_k1
   - 2.72 y_s78_i1_j22_k2 - 0.43 y_s78_i2_j1_k0 - 1.01 y_s78_i2_j1_k1
   - 1.34 y_s78_i2_j1_k2 - 12.93 y_s78_i3_j9_k0 - 10.27 y_s78_i3_j9_k1
   - 11.61 y_s78_i3_j9_k2 + 83.98 y_s78_i4_j34_k0 + 10.07 y_s78_i4_j34_k1
   - 6.14 y_s78_i4_j34_k2 - 0.47 y_s78_i5_j0_k0 - 3.55 y_s78_i5_j0_k1
   - 4.69 y_s78_i5_j0_k2 - 6.99 y_s78_i6_j52_k0 - 9.48 y_s78_i6_j52_k1
   - 2.48 y_s78_i6_j52_k2 + 2.63 y_s78_i7_j3_k0 - 2.98 y_s78_i7_j3_k1
   - 0.05 y_s78_i7_j3_k2 - 5.61 y_s78_i8_j10_k0 - 5.76 y_s78_i8_j10_k1
   - 2.97 y_s78_i8_j10_k2 - 7.38 y_s78_i9_j6_k0 + 33.44 y_s78_i9_j6_k1
   + 35.34 y_s78_i9_j6_k2 + 27.48 y_s78_i10_j5_k0 - 3.3 y_s78_i10_j5_k1
   - 4.83 y_s78_i10_j5_k2 + 5.18 y_s78_i11_j8_k0 - 1.54 y_s78_i11_j8_k1
   - 2.4 y_s78_i11_j8_k2 - 1.65 y_s78_i12_j11_k0 - 1.04 y_s78_i12_j11_k1
   - 1.52 y_s78_i12_j11_k2 - 0.49 y_s78_i13_j14_k0 - 4.46 y_s78_i13_j14_k1
   - 6.04 y_s78_i13_j14_k2 - 6.09 y_s78_i14_j12_k0 - 3.21 y_s78_i14_j12_k1
   - 4.31 y_s78_i14_j12_k2 - 12.08 y_s78_i15_j13_k0 - 9.72 y_s78_i15_j13_k1
   - 2.03 y_s78_i15_j13_k2 + 1.1 y_s78_i16_j17_k0 + 15.11 y_s78_i16_j17_k1
   - 6.92 y_s78_i16_j17_k2 - 5.52 y_s78_i17_j38_k0 - 2.75 y_s78_i17_j38_k1
   + 3.35 y_s78_i17_j38_k2 - 2.48 y_s78_i18_j20_k0 - 1.17 y_s78_i18_j20_k1
   - 2.81 y_s78_i18_j20_k2 - 2.09 y_s78_i19_j45_k0 + 0.72 y_s78_i19_j45_k1
   - 1.51 y_s78_i19_j45_k2 - 11.37 y_s78_i20_j16_k0 - 9.21 y_s78_i20_j16_k1
   - 10.78 y_s78_i20_j16_k2 - 3.87 y_s78_i21_j24_k0 - 0.49 y_s78_i21_j24_k1
   + 0.51 y_s78_i21_j24_k2 - 2.42 y_s78_i22_j21_k0 - 1.02 y_s78_i22_j21_k1
   - 4.9 y_s78_i22_j21_k2 - 6.9 y_s78_i23_j46_k0 - 9.83 y_s78_i23_j46_k1
   - 12.53 y_s78_i23_j46_k2 + 0.09 y_s78_i24_j23_k0 - 2.7 y_s78_i24_j23_k1
   + 3.26 y_s78_i24_j23_k2 - 4.27 y_s78_i25_j31_k0 + 4.53 y_s78_i25_j31_k1
   - 4.4 y_s78_i25_j31_k2 + 5.33 y_s78_i26_j27_k0 - 1.28 y_s78_i26_j27_k1
   - 3.99 y_s78_i26_j27_k2 + 3.23 y_s78_i27_j28_k0 + 11 y_s78_i27_j28_k1
   + 10.21 y_s78_i27_j28_k2 - 3.96 y_s78_i28_j25_k0 + 8.29 y_s78_i28_j25_k1
   - 5.22 y_s78_i28_j25_k2 - 8.08 y_s78_i29_j7_k0 - 8.5 y_s78_i29_j7_k1
   - 7.61 y_s78_i29_j7_k2 - 2.9 y_s78_i30_j29_k0 - 1.64 y_s78_i30_j29_k1
   - 3 y_s78_i30_j29_k2 - 3.24 y_s78_i31_j30_k0 - 3.03 y_s78_i31_j30_k1
   - 2.07 y_s78_i31_j30_k2 - 20.64 y_s78_i32_j40_k0
   - 27.48 y_s78_i32_j40_k1 + 13.22 y_s78_i32_j40_k2
   - 6.11 y_s78_i33_j35_k0 + 15.64 y_s78_i33_j35_k1 - 4.8 y_s78_i33_j35_k2
   - 6.39 y_s78_i34_j33_k0 - 7.74 y_s78_i34_j33_k1 - 5.84 y_s78_i34_j33_k2
   - 11.51 y_s78_i35_j32_k0 + 27.16 y_s78_i35_j32_k1
   - 12.65 y_s78_i35_j32_k2 - 1.91 y_s78_i36_j49_k0 - 1.46 y_s78_i36_j49_k1
   - 0.23 y_s78_i36_j49_k2 - 24.75 y_s78_i37_j39_k0 - 7.85 y_s78_i37_j39_k1
   + 260.28 y_s78_i37_j39_k2 - 4.22 y_s78_i38_j15_k0
   - 4.25 y_s78_i38_j15_k1 - 3.9 y_s78_i38_j15_k2 - 4.77 y_s78_i39_j53_k0
   - 2.06 y_s78_i39_j53_k1 - 23.17 y_s78_i39_j53_k2
   - 31.98 y_s78_i40_j37_k0 + 103.03 y_s78_i40_j37_k1
   - 24.28 y_s78_i40_j37_k2 - 4.83 y_s78_i41_j4_k0 - 0.11 y_s78_i41_j4_k1
   + 6.37 y_s78_i41_j4_k2 + 8.65 y_s78_i42_j44_k0 + 47.36 y_s78_i42_j44_k1
   - 5.64 y_s78_i42_j44_k2 - 17.45 y_s78_i43_j19_k0
   - 17.07 y_s78_i43_j19_k1 - 9.85 y_s78_i43_j19_k2
   - 18.93 y_s78_i44_j50_k0 - 27.01 y_s78_i44_j50_k1
   - 31.14 y_s78_i44_j50_k2 - 7.39 y_s78_i45_j18_k0 - 8.4 y_s78_i45_j18_k1
   - 9.4 y_s78_i45_j18_k2 - 8.74 y_s78_i46_j42_k0 - 10.4 y_s78_i46_j42_k1
   - 4.82 y_s78_i46_j42_k2 - 5.44 y_s78_i47_j41_k0 - 10.94 y_s78_i47_j41_k1
   - 5.4 y_s78_i47_j41_k2 - 7.29 y_s78_i48_j51_k0 + 20.25 y_s78_i48_j51_k1
   + 6.39 y_s78_i48_j51_k2 - 3.26 y_s78_i49_j26_k0 - 5.16 y_s78_i49_j26_k1
   - 2.42 y_s78_i49_j26_k2 - 8.35 y_s78_i50_j48_k0 + 2.89 y_s78_i50_j48_k1
   - 9.86 y_s78_i50_j48_k2 - 10.67 y_s78_i51_j36_k0 - 11.3 y_s78_i51_j36_k1
   - 7.33 y_s78_i51_j36_k2 - 6.64 y_s78_i52_j47_k0 - 7.75 y_s78_i52_j47_k1
   - 8.35 y_s78_i52_j47_k2 - 1.62 y_s78_i53_j43_k0 - 4.34 y_s78_i53_j43_k1
   + 1.58 y_s78_i53_j43_k2 - 1.02 y_s96_i0_j2_k0 + 2.61 y_s96_i0_j2_k1
   - 0.81 y_s96_i0_j2_k2 + 98.79 y_s96_i1_j22_k0 - 5.88 y_s96_i1_j22_k1
   - 5.13 y_s96_i1_j22_k2 + 2.51 y_s96_i2_j1_k0 - 1.19 y_s96_i2_j1_k1
   - 0.85 y_s96_i2_j1_k2 - 3.28 y_s96_i3_j9_k0 + 4.29 y_s96_i3_j9_k1
   - 7.82 y_s96_i3_j9_k2 + 8.34 y_s96_i4_j34_k0 - 13.82 y_s96_i4_j34_k1
   + 63.22 y_s96_i4_j34_k2 - 3.4 y_s96_i5_j0_k0 + 5.91 y_s96_i5_j0_k1
   - 2.32 y_s96_i5_j0_k2 - 10.48 y_s96_i6_j52_k0 + 6.76 y_s96_i6_j52_k1
   - 10.07 y_s96_i6_j52_k2 - 1.2 y_s96_i7_j3_k0 - 2.22 y_s96_i7_j3_k1
   - 3.5 y_s96_i7_j3_k2 - 4.58 y_s96_i8_j10_k0 - 3.7 y_s96_i8_j10_k1
   - 4.54 y_s96_i8_j10_k2 - 8.63 y_s96_i9_j6_k0 - 3.19 y_s96_i9_j6_k1
   - 8.22 y_s96_i9_j6_k2 + 0.63 y_s96_i10_j5_k0 - 3.66 y_s96_i10_j5_k1
   - 1.86 y_s96_i10_j5_k2 - 3.99 y_s96_i11_j8_k0 + 2.55 y_s96_i11_j8_k1
   - 3.78 y_s96_i11_j8_k2 - 0.82 y_s96_i12_j11_k0 - 2.04 y_s96_i12_j11_k1
   + 3.26 y_s96_i12_j11_k2 - 0.27 y_s96_i13_j14_k0 + 21.06 y_s96_i13_j14_k1
   + 5.87 y_s96_i13_j14_k2 - 9.9 y_s96_i14_j12_k0 - 5.14 y_s96_i14_j12_k1
   - 9.37 y_s96_i14_j12_k2 - 11.49 y_s96_i15_j13_k0
   + 49.78 y_s96_i15_j13_k1 - 10.65 y_s96_i15_j13_k2
   + 0.34 y_s96_i16_j17_k0 + 159.06 y_s96_i16_j17_k1
   - 5.98 y_s96_i16_j17_k2 - 4.24 y_s96_i17_j38_k0 - 1.71 y_s96_i17_j38_k1
   - 0.64 y_s96_i17_j38_k2 - 2.89 y_s96_i18_j20_k0 - 0.56 y_s96_i18_j20_k1
   - 2.92 y_s96_i18_j20_k2 + 12 y_s96_i19_j45_k0 - 0.93 y_s96_i19_j45_k1
   - 0.08 y_s96_i19_j45_k2 - 6.5 y_s96_i20_j16_k0 + 12.18 y_s96_i20_j16_k1
   - 13.49 y_s96_i20_j16_k2 - 2.56 y_s96_i21_j24_k0 - 3.08 y_s96_i21_j24_k1
   + 46.96 y_s96_i21_j24_k2 - 3.55 y_s96_i22_j21_k0 - 1.16 y_s96_i22_j21_k1
   + 23.18 y_s96_i22_j21_k2 - 7.3 y_s96_i23_j46_k0 - 7.77 y_s96_i23_j46_k1
   - 11.25 y_s96_i23_j46_k2 + 3.06 y_s96_i24_j23_k0 - 3.04 y_s96_i24_j23_k1
   - 2.9 y_s96_i24_j23_k2 - 4.89 y_s96_i25_j31_k0 + 21.96 y_s96_i25_j31_k1
   + 5.07 y_s96_i25_j31_k2 - 4.33 y_s96_i26_j27_k0 - 3.22 y_s96_i26_j27_k1
   - 0.03 y_s96_i26_j27_k2 + 5.75 y_s96_i27_j28_k0 - 3.75 y_s96_i27_j28_k1
   - 7.96 y_s96_i27_j28_k2 + 0.14 y_s96_i28_j25_k0 - 6.81 y_s96_i28_j25_k1
   - 4.27 y_s96_i28_j25_k2 - 6.03 y_s96_i29_j7_k0 - 7.84 y_s96_i29_j7_k1
   - 4.46 y_s96_i29_j7_k2 - 3.35 y_s96_i30_j29_k0 - 2.47 y_s96_i30_j29_k1
   + 12.47 y_s96_i30_j29_k2 + 13.55 y_s96_i31_j30_k0
   - 1.47 y_s96_i31_j30_k1 - 0.5 y_s96_i31_j30_k2 - 27.81 y_s96_i32_j40_k0
   + 38.21 y_s96_i32_j40_k1 - 21.49 y_s96_i32_j40_k2
   - 5.25 y_s96_i33_j35_k0 - 4.34 y_s96_i33_j35_k1 - 5.16 y_s96_i33_j35_k2
   - 11.1 y_s96_i34_j33_k0 - 12.55 y_s96_i34_j33_k1
   - 11.94 y_s96_i34_j33_k2 - 7.88 y_s96_i35_j32_k0 - 9.78 y_s96_i35_j32_k1
   - 12.21 y_s96_i35_j32_k2 - 2.33 y_s96_i36_j49_k1 - 2.41 y_s96_i36_j49_k2
   - 34.05 y_s96_i37_j39_k0 + 10.58 y_s96_i37_j39_k1
   - 37.38 y_s96_i37_j39_k2 - 6.15 y_s96_i38_j15_k0 + 3.23 y_s96_i38_j15_k1
   - 3.93 y_s96_i38_j15_k2 - 19.8 y_s96_i39_j53_k0 - 27.95 y_s96_i39_j53_k1
   - 25.24 y_s96_i39_j53_k2 - 30.37 y_s96_i40_j37_k0 - 6.4 y_s96_i40_j37_k1
   + 15.93 y_s96_i40_j37_k2 - 4.34 y_s96_i41_j4_k0 - 4.78 y_s96_i41_j4_k1
   - 1.82 y_s96_i41_j4_k2 + 8.72 y_s96_i42_j44_k0 + 21.23 y_s96_i42_j44_k1
   - 7.37 y_s96_i42_j44_k2 + 3.87 y_s96_i43_j19_k0 + 28.26 y_s96_i43_j19_k1
   + 105.24 y_s96_i43_j19_k2 - 30.53 y_s96_i44_j50_k0
   - 12.66 y_s96_i44_j50_k1 - 17.43 y_s96_i44_j50_k2
   + 11.01 y_s96_i45_j18_k0 + 8.01 y_s96_i45_j18_k1 - 9.2 y_s96_i45_j18_k2
   - 10.42 y_s96_i46_j42_k0 + 74.93 y_s96_i46_j42_k1 - 6.7 y_s96_i46_j42_k2
   - 0.72 y_s96_i47_j41_k0 + 21.76 y_s96_i47_j41_k1 - 7.78 y_s96_i47_j41_k2
   - 5.19 y_s96_i48_j51_k0 - 3.14 y_s96_i48_j51_k1 + 29.11 y_s96_i48_j51_k2
   - 4.17 y_s96_i49_j26_k0 + 3.79 y_s96_i49_j26_k1 - 3.67 y_s96_i49_j26_k2
   + 7.11 y_s96_i50_j48_k0 - 12.29 y_s96_i50_j48_k1
   - 14.33 y_s96_i50_j48_k2 + 7.6 y_s96_i51_j36_k0 - 17.36 y_s96_i51_j36_k1
   - 10.99 y_s96_i51_j36_k2 - 7.29 y_s96_i52_j47_k0 - 3.54 y_s96_i52_j47_k1
   - 8.59 y_s96_i52_j47_k2 + 0.04 y_s96_i53_j43_k0 + 11.17 y_s96_i53_j43_k1
   - 4.49 y_s96_i53_j43_k2 - 0.54 y_s64_i0_j2_k0 - 0.72 y_s64_i0_j2_k1
   - 0.6 y_s64_i0_j2_k2 + 41.56 y_s64_i1_j22_k0 + 7.77 y_s64_i1_j22_k1
   - 4.71 y_s64_i1_j22_k2 + 11.78 y_s64_i2_j1_k0 - 0.77 y_s64_i2_j1_k1
   - 1.14 y_s64_i2_j1_k2 - 5.31 y_s64_i3_j9_k0 - 10.43 y_s64_i3_j9_k1
   + 9.51 y_s64_i3_j9_k2 + 8.73 y_s64_i4_j34_k0 - 11.05 y_s64_i4_j34_k1
   - 15.56 y_s64_i4_j34_k2 - 4.16 y_s64_i5_j0_k0 + 14.63 y_s64_i5_j0_k1
   + 2.81 y_s64_i5_j0_k2 + 7.73 y_s64_i6_j52_k0 - 6.81 y_s64_i6_j52_k1
   - 3.49 y_s64_i6_j52_k2 - 1.76 y_s64_i7_j3_k0 - 1.99 y_s64_i7_j3_k1
   + 0.38 y_s64_i7_j3_k2 - 5.42 y_s64_i8_j10_k0 - 4.58 y_s64_i8_j10_k1
   - 3.75 y_s64_i8_j10_k2 + 23.92 y_s64_i9_j6_k0 + 56.47 y_s64_i9_j6_k1
   - 6.9 y_s64_i9_j6_k2 - 5.81 y_s64_i10_j5_k0 - 2.29 y_s64_i10_j5_k1
   - 5.96 y_s64_i10_j5_k2 - 3.64 y_s64_i11_j8_k0 - 3.51 y_s64_i11_j8_k1
   - 3.98 y_s64_i11_j8_k2 - 1.26 y_s64_i12_j11_k0 - 1.8 y_s64_i12_j11_k1
   + 18.47 y_s64_i12_j11_k2 - 0.85 y_s64_i13_j14_k0 - 4.67 y_s64_i13_j14_k1
   - 1.3 y_s64_i13_j14_k2 + 55.79 y_s64_i14_j12_k0 - 6.44 y_s64_i14_j12_k1
   + 7.02 y_s64_i14_j12_k2 - 12.51 y_s64_i15_j13_k0
   + 20.19 y_s64_i15_j13_k1 - 1.02 y_s64_i15_j13_k2 - 3.99 y_s64_i16_j17_k0
   - 5.96 y_s64_i16_j17_k1 + 8.48 y_s64_i16_j17_k2 - 4.47 y_s64_i17_j38_k0
   - 0.12 y_s64_i17_j38_k1 - 2.56 y_s64_i17_j38_k2 - 1.42 y_s64_i18_j20_k0
   + 36.24 y_s64_i18_j20_k1 - 1.96 y_s64_i18_j20_k2 - 1.73 y_s64_i19_j45_k0
   - 0.53 y_s64_i19_j45_k1 - 2.27 y_s64_i19_j45_k2 - 10.2 y_s64_i20_j16_k0
   + 0.89 y_s64_i20_j16_k1 - 10.08 y_s64_i20_j16_k2 - 1.98 y_s64_i21_j24_k0
   - 3.13 y_s64_i21_j24_k1 - 2.92 y_s64_i21_j24_k2 + 5.86 y_s64_i22_j21_k0
   + 2.7 y_s64_i22_j21_k1 + 4.94 y_s64_i22_j21_k2 - 7.53 y_s64_i23_j46_k0
   + 65.18 y_s64_i23_j46_k1 - 11.23 y_s64_i23_j46_k2
   - 3.49 y_s64_i24_j23_k0 - 3.13 y_s64_i24_j23_k1 - 2.67 y_s64_i24_j23_k2
   - 1.66 y_s64_i25_j31_k0 - 5.78 y_s64_i25_j31_k1 - 2 y_s64_i25_j31_k2
   - 0.67 y_s64_i26_j27_k0 - 2.21 y_s64_i26_j27_k1 - 2.91 y_s64_i26_j27_k2
   + 27.7 y_s64_i27_j28_k0 + 8.58 y_s64_i27_j28_k1 + 5.42 y_s64_i27_j28_k2
   - 4.37 y_s64_i28_j25_k0 - 3.85 y_s64_i28_j25_k1 - 5.41 y_s64_i28_j25_k2
   - 8.58 y_s64_i29_j7_k0 + 13.96 y_s64_i29_j7_k1 - 8.85 y_s64_i29_j7_k2
   - 0.9 y_s64_i30_j29_k0 - 2.6 y_s64_i30_j29_k1 - 2.31 y_s64_i30_j29_k2
   - 0.67 y_s64_i31_j30_k0 - 2.95 y_s64_i31_j30_k1 + 6.02 y_s64_i31_j30_k2
   + 75.99 y_s64_i32_j40_k0 + 183.82 y_s64_i32_j40_k1
   - 27.69 y_s64_i32_j40_k2 + 5.38 y_s64_i33_j35_k0 - 6.33 y_s64_i33_j35_k1
   - 1.53 y_s64_i33_j35_k2 - 14.15 y_s64_i34_j33_k0
   - 14.07 y_s64_i34_j33_k1 - 9.54 y_s64_i34_j33_k2 - 0.86 y_s64_i35_j32_k0
   + 3.56 y_s64_i35_j32_k1 - 13.25 y_s64_i35_j32_k2 + 42.1 y_s64_i36_j49_k0
   - 1.49 y_s64_i36_j49_k1 + 1.77 y_s64_i36_j49_k2 - 46.96 y_s64_i37_j39_k0
   - 33.34 y_s64_i37_j39_k1 - 25.22 y_s64_i37_j39_k2
   - 7.81 y_s64_i38_j15_k0 + 42.28 y_s64_i38_j15_k1 - 3.67 y_s64_i38_j15_k2
   + 20.08 y_s64_i39_j53_k0 - 23.16 y_s64_i39_j53_k1
   - 29.85 y_s64_i39_j53_k2 - 18.34 y_s64_i40_j37_k0
   - 18.43 y_s64_i40_j37_k1 - 26.57 y_s64_i40_j37_k2 + 1.68 y_s64_i41_j4_k0
   - 2 y_s64_i41_j4_k1 - 5.34 y_s64_i41_j4_k2 - 8.38 y_s64_i42_j44_k0
   - 7.17 y_s64_i42_j44_k1 - 9.51 y_s64_i42_j44_k2 - 2.96 y_s64_i43_j19_k0
   - 14.83 y_s64_i43_j19_k1 - 13.69 y_s64_i43_j19_k2
   + 12.4 y_s64_i44_j50_k0 - 24.56 y_s64_i44_j50_k1 - 29.1 y_s64_i44_j50_k2
   + 7.27 y_s64_i45_j18_k0 - 7.71 y_s64_i45_j18_k1 + 18.72 y_s64_i45_j18_k2
   - 7.58 y_s64_i46_j42_k0 - 10.35 y_s64_i46_j42_k1 - 2.86 y_s64_i46_j42_k2
   - 13.48 y_s64_i47_j41_k0 - 2.52 y_s64_i47_j41_k1 - 9.43 y_s64_i47_j41_k2
   - 7.68 y_s64_i48_j51_k0 - 4.28 y_s64_i48_j51_k1 + 12.3 y_s64_i48_j51_k2
   - 6.44 y_s64_i49_j26_k0 - 5.48 y_s64_i49_j26_k1 - 1.78 y_s64_i49_j26_k2
   - 9.56 y_s64_i50_j48_k0 - 3.77 y_s64_i50_j48_k1 - 10.26 y_s64_i50_j48_k2
   - 26.22 y_s64_i51_j36_k0 - 14.01 y_s64_i51_j36_k1
   - 8.29 y_s64_i51_j36_k2 - 7.86 y_s64_i52_j47_k0 + 14.78 y_s64_i52_j47_k1
   - 9.66 y_s64_i52_j47_k2 + 36.88 y_s64_i53_j43_k0 - 4.54 y_s64_i53_j43_k1
   - 2.3 y_s64_i53_j43_k2 - 0.91 y_s20_i0_j2_k0 - 0.82 y_s20_i0_j2_k1
   - 0.78 y_s20_i0_j2_k2 - 5.89 y_s20_i1_j22_k0 - 4.79 y_s20_i1_j22_k1
   - 3.31 y_s20_i1_j22_k2 - 1.48 y_s20_i2_j1_k0 - 1.04 y_s20_i2_j1_k1
   - 1.25 y_s20_i2_j1_k2 - 6.75 y_s20_i3_j9_k0 - 12.13 y_s20_i3_j9_k1
   + 0.16 y_s20_i3_j9_k2 - 14.81 y_s20_i4_j34_k0 - 14.9 y_s20_i4_j34_k1
   - 1.25 y_s20_i4_j34_k2 + 1.21 y_s20_i5_j0_k0 - 0.56 y_s20_i5_j0_k1
   + 16.63 y_s20_i5_j0_k2 - 8.9 y_s20_i6_j52_k0 - 5.09 y_s20_i6_j52_k1
   - 7.74 y_s20_i6_j52_k2 - 2.85 y_s20_i7_j3_k0 - 1.83 y_s20_i7_j3_k1
   - 3.29 y_s20_i7_j3_k2 + 28.35 y_s20_i8_j10_k0 + 1.25 y_s20_i8_j10_k1
   - 4.13 y_s20_i8_j10_k2 - 0.84 y_s20_i9_j6_k0 - 0.29 y_s20_i9_j6_k1
   + 9.44 y_s20_i9_j6_k2 - 3.17 y_s20_i10_j5_k0 - 5.06 y_s20_i10_j5_k1
   - 3.51 y_s20_i10_j5_k2 - 2.19 y_s20_i11_j8_k0 - 2.11 y_s20_i11_j8_k1
   + 1.67 y_s20_i11_j8_k2 - 1.14 y_s20_i12_j11_k0 - 0.39 y_s20_i12_j11_k1
   + 33.01 y_s20_i12_j11_k2 - 5.85 y_s20_i13_j14_k0 - 5.94 y_s20_i13_j14_k1
   - 3.55 y_s20_i13_j14_k2 - 2.59 y_s20_i14_j12_k0 - 2.23 y_s20_i14_j12_k1
   + 2.9 y_s20_i14_j12_k2 - 10.56 y_s20_i15_j13_k0 - 2.55 y_s20_i15_j13_k1
   - 9.45 y_s20_i15_j13_k2 + 17.54 y_s20_i16_j17_k0 - 3.46 y_s20_i16_j17_k1
   - 5.36 y_s20_i16_j17_k2 + 0.14 y_s20_i17_j38_k0 - 4.92 y_s20_i17_j38_k1
   - 5.93 y_s20_i17_j38_k2 - 1.53 y_s20_i18_j20_k0 - 2.72 y_s20_i18_j20_k1
   + 4.75 y_s20_i18_j20_k2 - 2.09 y_s20_i19_j45_k0 - 2.6 y_s20_i19_j45_k1
   - 0.77 y_s20_i19_j45_k2 - 14.19 y_s20_i20_j16_k0
   - 12.98 y_s20_i20_j16_k1 - 14.7 y_s20_i20_j16_k2 - 4.19 y_s20_i21_j24_k0
   + 10.52 y_s20_i21_j24_k1 - 1.2 y_s20_i21_j24_k2 - 6.56 y_s20_i22_j21_k0
   + 2.72 y_s20_i22_j21_k1 - 3.2 y_s20_i22_j21_k2 + 10.79 y_s20_i23_j46_k0
   + 21.69 y_s20_i23_j46_k1 - 11.54 y_s20_i23_j46_k2
   - 3.33 y_s20_i24_j23_k0 - 1.93 y_s20_i24_j23_k1 - 2.85 y_s20_i24_j23_k2
   - 4.48 y_s20_i25_j31_k0 + 0.37 y_s20_i25_j31_k1 - 3.26 y_s20_i25_j31_k2
   - 0.1 y_s20_i26_j27_k0 + 63.21 y_s20_i26_j27_k1 - 2.87 y_s20_i26_j27_k2
   + 29.08 y_s20_i27_j28_k0 - 0.14 y_s20_i27_j28_k1 - 4.06 y_s20_i27_j28_k2
   - 1.27 y_s20_i28_j25_k0 - 3.82 y_s20_i28_j25_k1 - 4.08 y_s20_i28_j25_k2
   - 9.51 y_s20_i29_j7_k0 - 6.39 y_s20_i29_j7_k1 - 4.21 y_s20_i29_j7_k2
   + 1.25 y_s20_i30_j29_k0 - 2.54 y_s20_i30_j29_k1 - 2.93 y_s20_i30_j29_k2
   - 0.15 y_s20_i31_j30_k0 + 1.98 y_s20_i31_j30_k1 - 3.03 y_s20_i31_j30_k2
   + 170.79 y_s20_i32_j40_k0 - 15.29 y_s20_i32_j40_k1
   + 142.05 y_s20_i32_j40_k2 - 5.62 y_s20_i33_j35_k0
   - 5.54 y_s20_i33_j35_k1 - 1.79 y_s20_i33_j35_k2 - 15.05 y_s20_i34_j33_k0
   + 1.6 y_s20_i34_j33_k1 + 3.13 y_s20_i34_j33_k2 - 12.98 y_s20_i35_j32_k0
   - 9.19 y_s20_i35_j32_k1 + 11.29 y_s20_i35_j32_k2 - 1.6 y_s20_i36_j49_k0
   - 1.73 y_s20_i36_j49_k1 + 0.52 y_s20_i36_j49_k2 - 41.48 y_s20_i37_j39_k0
   - 35.68 y_s20_i37_j39_k1 - 31.35 y_s20_i37_j39_k2
   - 6.84 y_s20_i38_j15_k0 - 2.67 y_s20_i38_j15_k1 + 37.51 y_s20_i38_j15_k2
   - 27.3 y_s20_i39_j53_k0 + 16.47 y_s20_i39_j53_k1
   - 16.72 y_s20_i39_j53_k2 - 33.48 y_s20_i40_j37_k0
   - 32.01 y_s20_i40_j37_k1 - 23.58 y_s20_i40_j37_k2 - 5.21 y_s20_i41_j4_k0
   - 6.26 y_s20_i41_j4_k1 - 2.7 y_s20_i41_j4_k2 - 6.48 y_s20_i42_j44_k0
   + 7.23 y_s20_i42_j44_k1 - 10.07 y_s20_i42_j44_k2 - 4.76 y_s20_i43_j19_k0
   + 24.26 y_s20_i43_j19_k1 - 12.43 y_s20_i43_j19_k2
   + 59.96 y_s20_i44_j50_k0 + 16.09 y_s20_i44_j50_k1
   - 11.17 y_s20_i44_j50_k2 - 9.87 y_s20_i45_j18_k0 - 6.72 y_s20_i45_j18_k1
   + 2.16 y_s20_i45_j18_k2 + 32.44 y_s20_i46_j42_k0 - 5.79 y_s20_i46_j42_k1
   - 1.9 y_s20_i46_j42_k2 - 2.08 y_s20_i47_j41_k0 - 10.73 y_s20_i47_j41_k1
   + 5 y_s20_i47_j41_k2 - 9.29 y_s20_i48_j51_k0 + 32.35 y_s20_i48_j51_k1
   + 86.76 y_s20_i48_j51_k2 - 5.21 y_s20_i49_j26_k0 - 4.28 y_s20_i49_j26_k1
   + 3.16 y_s20_i49_j26_k2 - 5.8 y_s20_i50_j48_k0 - 12.58 y_s20_i50_j48_k1
   + 4.15 y_s20_i50_j48_k2 - 23.35 y_s20_i51_j36_k0
   - 24.46 y_s20_i51_j36_k1 - 19.91 y_s20_i51_j36_k2
   - 0.57 y_s20_i52_j47_k0 - 6.08 y_s20_i52_j47_k1
   + 145.99 y_s20_i52_j47_k2 + 1.08 y_s20_i53_j43_k0 - 7.1 y_s20_i53_j43_k1
   - 3.77 y_s20_i53_j43_k2 - 1.06 y_s51_i0_j2_k1 - 0.56 y_s51_i0_j2_k2
   - 4.08 y_s51_i1_j22_k0 + 4.38 y_s51_i1_j22_k1 - 3.77 y_s51_i1_j22_k2
   - 0.31 y_s51_i2_j1_k0 + 0.39 y_s51_i2_j1_k1 - 1.42 y_s51_i2_j1_k2
   + 93.45 y_s51_i3_j9_k0 - 10.8 y_s51_i3_j9_k1 - 9.54 y_s51_i3_j9_k2
   - 15.22 y_s51_i4_j34_k0 - 10.13 y_s51_i4_j34_k1 - 14.51 y_s51_i4_j34_k2
   - 4.32 y_s51_i5_j0_k0 + 7.2 y_s51_i5_j0_k1 - 5.95 y_s51_i5_j0_k2
   + 1.37 y_s51_i6_j52_k0 - 4.71 y_s51_i6_j52_k1 + 1.53 y_s51_i6_j52_k2
   + 1.42 y_s51_i7_j3_k0 + 7.75 y_s51_i7_j3_k1 - 1.23 y_s51_i7_j3_k2
   - 2.3 y_s51_i8_j10_k0 - 5.02 y_s51_i8_j10_k1 - 2.39 y_s51_i8_j10_k2
   - 3.66 y_s51_i9_j6_k0 - 6.48 y_s51_i9_j6_k1 + 1.53 y_s51_i9_j6_k2
   - 2.72 y_s51_i10_j5_k0 + 5.66 y_s51_i10_j5_k1 - 4.69 y_s51_i10_j5_k2
   - 2.06 y_s51_i11_j8_k0 - 3.61 y_s51_i11_j8_k1 + 4.79 y_s51_i11_j8_k2
   - 1.37 y_s51_i12_j11_k0 + 4.28 y_s51_i12_j11_k1 - 1.8 y_s51_i12_j11_k2
   - 0.66 y_s51_i13_j14_k0 - 4.1 y_s51_i13_j14_k1 - 5.04 y_s51_i13_j14_k2
   + 1.06 y_s51_i14_j12_k0 + 149.8 y_s51_i14_j12_k1 - 9.51 y_s51_i14_j12_k2
   + 3.38 y_s51_i15_j13_k0 - 2.01 y_s51_i15_j13_k1 - 13.56 y_s51_i15_j13_k2
   - 5.03 y_s51_i16_j17_k0 - 6.61 y_s51_i16_j17_k1 + 25.49 y_s51_i16_j17_k2
   + 9.6 y_s51_i17_j38_k0 - 3.37 y_s51_i17_j38_k1 - 1.16 y_s51_i17_j38_k2
   - 3.19 y_s51_i18_j20_k0 - 1.95 y_s51_i18_j20_k1 + 2.46 y_s51_i18_j20_k2
   - 1.47 y_s51_i19_j45_k0 - 1.89 y_s51_i19_j45_k1 - 2.32 y_s51_i19_j45_k2
   - 6.54 y_s51_i20_j16_k0 - 14.5 y_s51_i20_j16_k1 + 81.3 y_s51_i20_j16_k2
   + 3.45 y_s51_i21_j24_k0 + 8.29 y_s51_i21_j24_k1 - 1.69 y_s51_i21_j24_k2
   + 6.99 y_s51_i22_j21_k0 + 38.67 y_s51_i22_j21_k1 - 3.33 y_s51_i22_j21_k2
   - 5.77 y_s51_i23_j46_k0 - 10.46 y_s51_i23_j46_k1
   + 27.97 y_s51_i23_j46_k2 + 2.18 y_s51_i24_j23_k0 - 1.68 y_s51_i24_j23_k1
   - 3.35 y_s51_i24_j23_k2 - 3.96 y_s51_i25_j31_k0 + 17 y_s51_i25_j31_k1
   - 5.46 y_s51_i25_j31_k2 - 3.9 y_s51_i26_j27_k0 - 2.29 y_s51_i26_j27_k1
   - 3.75 y_s51_i26_j27_k2 - 7.13 y_s51_i27_j28_k0 - 1.3 y_s51_i27_j28_k1
   + 39.55 y_s51_i27_j28_k2 - 2.91 y_s51_i28_j25_k0 - 7.03 y_s51_i28_j25_k1
   + 8.31 y_s51_i28_j25_k2 - 5.21 y_s51_i29_j7_k0 - 8.63 y_s51_i29_j7_k1
   + 25.71 y_s51_i29_j7_k2 - 2.31 y_s51_i30_j29_k0 + 0.2 y_s51_i30_j29_k1
   - 2 y_s51_i30_j29_k2 - 0.5 y_s51_i31_j30_k0 + 63.97 y_s51_i31_j30_k1
   + 3.54 y_s51_i31_j30_k2 - 9.02 y_s51_i32_j40_k0 - 17.4 y_s51_i32_j40_k1
   - 20.56 y_s51_i32_j40_k2 - 1.66 y_s51_i33_j35_k0 + 2.55 y_s51_i33_j35_k1
   + 31.83 y_s51_i33_j35_k2 - 12.3 y_s51_i34_j33_k0 - 6.77 y_s51_i34_j33_k1
   - 8.81 y_s51_i34_j33_k2 - 7.84 y_s51_i35_j32_k0 - 7.76 y_s51_i35_j32_k1
   - 13.84 y_s51_i35_j32_k2 - 2.48 y_s51_i36_j49_k0 - 2.23 y_s51_i36_j49_k1
   - 1.34 y_s51_i36_j49_k2 - 36.97 y_s51_i37_j39_k0
   - 27.72 y_s51_i37_j39_k1 - 18.67 y_s51_i37_j39_k2
   + 23.59 y_s51_i38_j15_k0 - 0.26 y_s51_i38_j15_k1 - 5.96 y_s51_i38_j15_k2
   + 141.01 y_s51_i39_j53_k0 - 20.59 y_s51_i39_j53_k1
   - 32.79 y_s51_i39_j53_k2 - 20.88 y_s51_i40_j37_k0
   - 10.92 y_s51_i40_j37_k1 + 18.32 y_s51_i40_j37_k2 - 3.69 y_s51_i41_j4_k0
   - 5.15 y_s51_i41_j4_k1 + 8.73 y_s51_i41_j4_k2 - 10.13 y_s51_i42_j44_k0
   + 3.34 y_s51_i42_j44_k1 - 7 y_s51_i42_j44_k2 - 5.49 y_s51_i43_j19_k0
   - 12.71 y_s51_i43_j19_k1 + 5.57 y_s51_i43_j19_k2 - 1.46 y_s51_i44_j50_k0
   - 16.81 y_s51_i44_j50_k1 + 13.88 y_s51_i44_j50_k2
   - 6.03 y_s51_i45_j18_k0 - 4.35 y_s51_i45_j18_k1 - 7.96 y_s51_i45_j18_k2
   - 9.23 y_s51_i46_j42_k0 - 1.05 y_s51_i46_j42_k1 - 7.89 y_s51_i46_j42_k2
   + 0.34 y_s51_i47_j41_k0 - 12.54 y_s51_i47_j41_k1 - 1.77 y_s51_i47_j41_k2
   - 6.18 y_s51_i48_j51_k0 - 3.78 y_s51_i48_j51_k1 - 4.2 y_s51_i48_j51_k2
   - 5.63 y_s51_i49_j26_k0 - 5.17 y_s51_i49_j26_k1 - 2.89 y_s51_i49_j26_k2
   - 2.39 y_s51_i50_j48_k0 - 12.96 y_s51_i50_j48_k1 + 7.77 y_s51_i50_j48_k2
   - 25.22 y_s51_i51_j36_k0 - 23.41 y_s51_i51_j36_k1
   - 19.03 y_s51_i51_j36_k2 - 8.06 y_s51_i52_j47_k0 + 3.6 y_s51_i52_j47_k1
   - 1.39 y_s51_i52_j47_k2 + 59.47 y_s51_i53_j43_k0
   + 10.05 y_s51_i53_j43_k1 + 3.65 y_s51_i53_j43_k2 + 3.43 y_s61_i0_j2_k0
   + 0.15 y_s61_i0_j2_k1 - 1.01 y_s61_i0_j2_k2 - 1.75 y_s61_i1_j22_k0
   - 4.7 y_s61_i1_j22_k1 - 4.66 y_s61_i1_j22_k2 - 1.23 y_s61_i2_j1_k0
   - 1.36 y_s61_i2_j1_k1 - 0.61 y_s61_i2_j1_k2 + 0.12 y_s61_i3_j9_k0
   + 26.61 y_s61_i3_j9_k1 - 11.95 y_s61_i3_j9_k2 - 10.42 y_s61_i4_j34_k0
   - 15.77 y_s61_i4_j34_k1 - 12.43 y_s61_i4_j34_k2 + 1.46 y_s61_i5_j0_k0
   - 0.22 y_s61_i5_j0_k1 - 3.7 y_s61_i5_j0_k2 + 8.74 y_s61_i6_j52_k0
   + 1.91 y_s61_i6_j52_k1 - 8.66 y_s61_i6_j52_k2 - 2.79 y_s61_i7_j3_k0
   + 4.39 y_s61_i7_j3_k1 + 0.28 y_s61_i7_j3_k2 + 8.93 y_s61_i8_j10_k0
   - 5.02 y_s61_i8_j10_k1 - 2.23 y_s61_i8_j10_k2 + 0.68 y_s61_i9_j6_k0
   - 4.61 y_s61_i9_j6_k1 + 20.29 y_s61_i9_j6_k2 + 10.38 y_s61_i10_j5_k0
   + 42.35 y_s61_i10_j5_k1 + 8.93 y_s61_i10_j5_k2 - 2.84 y_s61_i11_j8_k0
   - 3.48 y_s61_i11_j8_k1 + 3.73 y_s61_i11_j8_k2 - 1.24 y_s61_i12_j11_k0
   - 1.51 y_s61_i12_j11_k1 + 1.17 y_s61_i12_j11_k2 - 4.64 y_s61_i13_j14_k0
   - 4.48 y_s61_i13_j14_k1 - 3.88 y_s61_i13_j14_k2 - 2.18 y_s61_i14_j12_k0
   - 1.57 y_s61_i14_j12_k1 - 9.2 y_s61_i14_j12_k2 - 10.7 y_s61_i15_j13_k0
   - 5.04 y_s61_i15_j13_k1 - 13.31 y_s61_i15_j13_k2 - 5.18 y_s61_i16_j17_k0
   - 4.42 y_s61_i16_j17_k1 + 25.49 y_s61_i16_j17_k2 - 5.11 y_s61_i17_j38_k0
   - 5.17 y_s61_i17_j38_k1 + 23.48 y_s61_i17_j38_k2 - 0.95 y_s61_i18_j20_k0
   - 2.63 y_s61_i18_j20_k1 - 3.44 y_s61_i18_j20_k2 - 1.91 y_s61_i19_j45_k0
   - 1.71 y_s61_i19_j45_k1 - 2.2 y_s61_i19_j45_k2 - 4.8 y_s61_i20_j16_k0
   - 9.52 y_s61_i20_j16_k1 + 35.62 y_s61_i20_j16_k2 - 3.71 y_s61_i21_j24_k0
   - 3.31 y_s61_i21_j24_k1 - 3.27 y_s61_i21_j24_k2 - 3.47 y_s61_i22_j21_k0
   - 2.6 y_s61_i22_j21_k1 - 5.5 y_s61_i22_j21_k2 - 13.53 y_s61_i23_j46_k0
   + 7.31 y_s61_i23_j46_k1 + 92.48 y_s61_i23_j46_k2 - 3.16 y_s61_i24_j23_k0
   - 3.34 y_s61_i24_j23_k1 + 2.84 y_s61_i24_j23_k2 - 5.25 y_s61_i25_j31_k0
   - 5.39 y_s61_i25_j31_k1 - 6.11 y_s61_i25_j31_k2 - 3.84 y_s61_i26_j27_k0
   - 2.16 y_s61_i26_j27_k1 - 4.2 y_s61_i26_j27_k2 - 0.83 y_s61_i27_j28_k0
   + 11.52 y_s61_i27_j28_k1 + 24.27 y_s61_i27_j28_k2
   - 3.26 y_s61_i28_j25_k0 - 3.61 y_s61_i28_j25_k1 - 3.23 y_s61_i28_j25_k2
   + 28.21 y_s61_i29_j7_k0 - 7.74 y_s61_i29_j7_k1 - 8.3 y_s61_i29_j7_k2
   - 0.67 y_s61_i30_j29_k0 - 3.24 y_s61_i30_j29_k1 - 2.59 y_s61_i30_j29_k2
   + 0.7 y_s61_i31_j30_k0 + 0.54 y_s61_i31_j30_k1 + 10.24 y_s61_i31_j30_k2
   - 32.29 y_s61_i32_j40_k0 - 28.76 y_s61_i32_j40_k1
   + 69.7 y_s61_i32_j40_k2 - 5.45 y_s61_i33_j35_k0 - 1.6 y_s61_i33_j35_k1
   - 5.88 y_s61_i33_j35_k2 - 13.59 y_s61_i34_j33_k0
   - 13.18 y_s61_i34_j33_k1 - 13.64 y_s61_i34_j33_k2
   - 7.88 y_s61_i35_j32_k0 - 8.63 y_s61_i35_j32_k1 + 0.82 y_s61_i35_j32_k2
   - 3.02 y_s61_i36_j49_k0 + 0.44 y_s61_i36_j49_k1 - 2.12 y_s61_i36_j49_k2
   - 27.75 y_s61_i37_j39_k0 - 32.86 y_s61_i37_j39_k1
   + 127.04 y_s61_i37_j39_k2 - 4.32 y_s61_i38_j15_k0
   + 3.01 y_s61_i38_j15_k1 - 5.11 y_s61_i38_j15_k2 - 37.36 y_s61_i39_j53_k0
   - 29.45 y_s61_i39_j53_k1 - 35.2 y_s61_i39_j53_k2 - 2.89 y_s61_i40_j37_k0
   - 30.98 y_s61_i40_j37_k1 - 27.9 y_s61_i40_j37_k2 - 4.06 y_s61_i41_j4_k0
   - 3.73 y_s61_i41_j4_k1 - 3.95 y_s61_i41_j4_k2 - 2.3 y_s61_i42_j44_k0
   - 6.48 y_s61_i42_j44_k1 - 6.91 y_s61_i42_j44_k2 + 23.71 y_s61_i43_j19_k0
   - 15.35 y_s61_i43_j19_k1 - 16.09 y_s61_i43_j19_k2
   - 27.7 y_s61_i44_j50_k0 - 20.33 y_s61_i44_j50_k1
   - 34.82 y_s61_i44_j50_k2 - 0.91 y_s61_i45_j18_k0
   + 12.24 y_s61_i45_j18_k1 - 6.91 y_s61_i45_j18_k2 - 8.51 y_s61_i46_j42_k0
   - 8.87 y_s61_i46_j42_k1 + 8.77 y_s61_i46_j42_k2 + 5.03 y_s61_i47_j41_k0
   + 8.46 y_s61_i47_j41_k1 + 14.08 y_s61_i47_j41_k2 - 7.89 y_s61_i48_j51_k0
   + 13.91 y_s61_i48_j51_k1 - 6.83 y_s61_i48_j51_k2 - 0.62 y_s61_i49_j26_k0
   - 1.41 y_s61_i49_j26_k1 - 0.55 y_s61_i49_j26_k2 - 0.22 y_s61_i50_j48_k0
   + 15.62 y_s61_i50_j48_k1 + 39.19 y_s61_i50_j48_k2
   - 14.76 y_s61_i51_j36_k0 - 15.6 y_s61_i51_j36_k1
   - 24.37 y_s61_i51_j36_k2 - 3.96 y_s61_i52_j47_k0 - 9.27 y_s61_i52_j47_k1
   - 2.65 y_s61_i52_j47_k2 - 6.86 y_s61_i53_j43_k0 + 17.84 y_s61_i53_j43_k1
   - 1.49 y_s61_i53_j43_k2 + 11.04 y_s81_i0_j2_k0 - 0.61 y_s81_i0_j2_k1
   - 0.78 y_s81_i0_j2_k2 - 5.71 y_s81_i1_j22_k0 - 5.59 y_s81_i1_j22_k1
   - 2.93 y_s81_i1_j22_k2 - 1.33 y_s81_i2_j1_k0 - 1.33 y_s81_i2_j1_k1
   - 0.87 y_s81_i2_j1_k2 - 10.79 y_s81_i3_j9_k0 + 50.08 y_s81_i3_j9_k1
   - 10.17 y_s81_i3_j9_k2 - 5.62 y_s81_i4_j34_k0 - 13.98 y_s81_i4_j34_k1
   - 13.49 y_s81_i4_j34_k2 + 99.72 y_s81_i5_j0_k0 + 7.46 y_s81_i5_j0_k1
   + 97.82 y_s81_i5_j0_k2 - 6.8 y_s81_i6_j52_k0 + 2 y_s81_i6_j52_k1
   - 9.91 y_s81_i6_j52_k2 - 3.26 y_s81_i7_j3_k0 - 2.77 y_s81_i7_j3_k1
   - 1.62 y_s81_i7_j3_k2 - 1.54 y_s81_i8_j10_k0 - 4.87 y_s81_i8_j10_k1
   - 1.98 y_s81_i8_j10_k2 - 9.31 y_s81_i9_j6_k0 - 8.58 y_s81_i9_j6_k1
   - 9.41 y_s81_i9_j6_k2 + 1.79 y_s81_i10_j5_k0 + 18.37 y_s81_i10_j5_k1
   + 7.27 y_s81_i10_j5_k2 - 4.21 y_s81_i11_j8_k0 - 3.66 y_s81_i11_j8_k1
   - 3.69 y_s81_i11_j8_k2 - 1.94 y_s81_i12_j11_k0 - 1.68 y_s81_i12_j11_k1
   - 0.94 y_s81_i12_j11_k2 - 4.75 y_s81_i13_j14_k0 - 5.42 y_s81_i13_j14_k1
   - 1.95 y_s81_i13_j14_k2 + 3.91 y_s81_i14_j12_k0 - 6.46 y_s81_i14_j12_k1
   - 10.91 y_s81_i14_j12_k2 + 29.72 y_s81_i15_j13_k0
   - 15.27 y_s81_i15_j13_k1 - 10.58 y_s81_i15_j13_k2
   - 5.13 y_s81_i16_j17_k0 - 3.44 y_s81_i16_j17_k1 + 23.41 y_s81_i16_j17_k2
   + 10.3 y_s81_i17_j38_k0 + 2.89 y_s81_i17_j38_k1 - 5.04 y_s81_i17_j38_k2
   - 0.02 y_s81_i18_j20_k0 + 0.19 y_s81_i18_j20_k1 + 0.28 y_s81_i18_j20_k2
   - 0.63 y_s81_i19_j45_k0 - 2.03 y_s81_i19_j45_k1 + 16.09 y_s81_i19_j45_k2
   - 8.27 y_s81_i20_j16_k0 - 7.69 y_s81_i20_j16_k1 - 7.05 y_s81_i20_j16_k2
   + 4.56 y_s81_i21_j24_k0 - 0.75 y_s81_i21_j24_k1 - 1.53 y_s81_i21_j24_k2
   + 4.54 y_s81_i22_j21_k0 + 14.24 y_s81_i22_j21_k1 - 6.85 y_s81_i22_j21_k2
   - 12.13 y_s81_i23_j46_k0 + 9.33 y_s81_i23_j46_k1
   + 13.14 y_s81_i23_j46_k2 - 2.63 y_s81_i24_j23_k0 - 2.74 y_s81_i24_j23_k1
   - 2.5 y_s81_i24_j23_k2 - 1.31 y_s81_i25_j31_k0 - 0.98 y_s81_i25_j31_k1
   - 0.97 y_s81_i25_j31_k2 - 3.38 y_s81_i26_j27_k0 - 2.48 y_s81_i26_j27_k1
   - 4.18 y_s81_i26_j27_k2 - 3.51 y_s81_i27_j28_k0 - 7.35 y_s81_i27_j28_k1
   - 8.31 y_s81_i27_j28_k2 - 1.81 y_s81_i28_j25_k0 - 4.71 y_s81_i28_j25_k1
   - 6.33 y_s81_i28_j25_k2 - 3.39 y_s81_i29_j7_k0 - 5.15 y_s81_i29_j7_k1
   - 5.98 y_s81_i29_j7_k2 - 3.1 y_s81_i30_j29_k0 - 2.12 y_s81_i30_j29_k1
   + 16.53 y_s81_i30_j29_k2 + 0.07 y_s81_i31_j30_k0 - 3.16 y_s81_i31_j30_k1
   + 8.85 y_s81_i31_j30_k2 - 22.06 y_s81_i32_j40_k0 - 32.7 y_s81_i32_j40_k1
   - 24.38 y_s81_i32_j40_k2 + 7.38 y_s81_i33_j35_k0 - 6.99 y_s81_i33_j35_k1
   - 6.08 y_s81_i33_j35_k2 - 13.6 y_s81_i34_j33_k0 - 14.08 y_s81_i34_j33_k1
   - 5.77 y_s81_i34_j33_k2 - 11.62 y_s81_i35_j32_k0
   + 28.64 y_s81_i35_j32_k1 + 36.12 y_s81_i35_j32_k2
   - 0.62 y_s81_i36_j49_k0 + 9.76 y_s81_i36_j49_k1 - 2.08 y_s81_i36_j49_k2
   - 23.58 y_s81_i37_j39_k0 - 7.84 y_s81_i37_j39_k1
   - 18.86 y_s81_i37_j39_k2 - 4.58 y_s81_i38_j15_k0 + 0.59 y_s81_i38_j15_k1
   + 14.27 y_s81_i38_j15_k2 - 32.4 y_s81_i39_j53_k0
   - 13.06 y_s81_i39_j53_k1 - 15.8 y_s81_i39_j53_k2
   + 134.42 y_s81_i40_j37_k0 - 17.51 y_s81_i40_j37_k1
   - 30.44 y_s81_i40_j37_k2 - 1.6 y_s81_i41_j4_k0 + 8.34 y_s81_i41_j4_k1
   + 12.85 y_s81_i41_j4_k2 + 24.93 y_s81_i42_j44_k0 - 6.69 y_s81_i42_j44_k1
   + 6.14 y_s81_i42_j44_k2 + 58.84 y_s81_i43_j19_k0
   - 10.18 y_s81_i43_j19_k1 + 40.46 y_s81_i43_j19_k2
   - 32.02 y_s81_i44_j50_k0 - 28.33 y_s81_i44_j50_k1
   - 31.8 y_s81_i44_j50_k2 - 4.97 y_s81_i45_j18_k0 - 3.99 y_s81_i45_j18_k1
   - 0.14 y_s81_i45_j18_k2 - 8.35 y_s81_i46_j42_k0 - 2.85 y_s81_i46_j42_k1
   + 80.58 y_s81_i46_j42_k2 - 12.84 y_s81_i47_j41_k0
   - 12.48 y_s81_i47_j41_k1 - 12.64 y_s81_i47_j41_k2
   - 1.04 y_s81_i48_j51_k0 - 6.56 y_s81_i48_j51_k1 + 74.72 y_s81_i48_j51_k2
   - 4.73 y_s81_i49_j26_k0 + 9.56 y_s81_i49_j26_k1 - 5.24 y_s81_i49_j26_k2
   - 10.44 y_s81_i50_j48_k0 - 3.28 y_s81_i50_j48_k1
   - 14.67 y_s81_i50_j48_k2 - 20.85 y_s81_i51_j36_k0
   - 23.53 y_s81_i51_j36_k1 + 24.26 y_s81_i51_j36_k2
   + 0.91 y_s81_i52_j47_k0 + 49.69 y_s81_i52_j47_k1 - 2.56 y_s81_i52_j47_k2
   - 5.21 y_s81_i53_j43_k0 - 2.36 y_s81_i53_j43_k1 - 6.18 y_s81_i53_j43_k2
   - 0.28 y_s9_i0_j2_k0 - 0.85 y_s9_i0_j2_k1 - 0.67 y_s9_i0_j2_k2
   - 4.6 y_s9_i1_j22_k0 - 4.53 y_s9_i1_j22_k1 - 1.39 y_s9_i1_j22_k2
   - 1.24 y_s9_i2_j1_k0 - 0.73 y_s9_i2_j1_k1 - 1.17 y_s9_i2_j1_k2
   + 187.73 y_s9_i3_j9_k0 - 13.48 y_s9_i3_j9_k1 - 9.68 y_s9_i3_j9_k2
   - 12.36 y_s9_i4_j34_k0 + 9.78 y_s9_i4_j34_k1 - 14.44 y_s9_i4_j34_k2
   - 2.05 y_s9_i5_j0_k0 - 0.43 y_s9_i5_j0_k1 + 1.27 y_s9_i5_j0_k2
   - 6.51 y_s9_i6_j52_k0 + 12.9 y_s9_i6_j52_k1 - 7.74 y_s9_i6_j52_k2
   - 2.65 y_s9_i7_j3_k0 - 1.6 y_s9_i7_j3_k1 - 3.21 y_s9_i7_j3_k2
   + 31.65 y_s9_i8_j10_k0 - 2.44 y_s9_i8_j10_k1 - 4.67 y_s9_i8_j10_k2
   + 3 y_s9_i9_j6_k0 - 10.31 y_s9_i9_j6_k1 - 9.84 y_s9_i9_j6_k2
   - 4.96 y_s9_i10_j5_k0 + 0.07 y_s9_i10_j5_k1 - 4.5 y_s9_i10_j5_k2
   + 11.95 y_s9_i11_j8_k0 - 0.98 y_s9_i11_j8_k1 - 0.53 y_s9_i11_j8_k2
   - 1.96 y_s9_i12_j11_k0 - 0.17 y_s9_i12_j11_k1 - 1.33 y_s9_i12_j11_k2
   - 1.08 y_s9_i13_j14_k0 - 4.12 y_s9_i13_j14_k1 - 6.17 y_s9_i13_j14_k2
   + 53.85 y_s9_i14_j12_k0 - 7.4 y_s9_i14_j12_k1 - 10.68 y_s9_i14_j12_k2
   + 14.96 y_s9_i15_j13_k0 - 0.3 y_s9_i15_j13_k1 - 10.99 y_s9_i15_j13_k2
   - 3.96 y_s9_i16_j17_k0 - 4.95 y_s9_i16_j17_k1 - 3.94 y_s9_i16_j17_k2
   - 2.98 y_s9_i17_j38_k0 - 3.05 y_s9_i17_j38_k1 - 5.86 y_s9_i17_j38_k2
   + 0.51 y_s9_i18_j20_k0 - 1.5 y_s9_i18_j20_k1 - 2.08 y_s9_i18_j20_k2
   - 0.83 y_s9_i19_j45_k0 - 2.12 y_s9_i19_j45_k1 - 0.83 y_s9_i19_j45_k2
   - 9.88 y_s9_i20_j16_k0 - 11 y_s9_i20_j16_k1 - 6.15 y_s9_i20_j16_k2
   - 2.56 y_s9_i21_j24_k0 - 4.03 y_s9_i21_j24_k1 - 4.38 y_s9_i21_j24_k2
   - 5.79 y_s9_i22_j21_k0 - 4.14 y_s9_i22_j21_k1 - 4.82 y_s9_i22_j21_k2
   - 9.6 y_s9_i23_j46_k0 + 11.06 y_s9_i23_j46_k1 - 6.74 y_s9_i23_j46_k2
   - 2.54 y_s9_i24_j23_k0 + 0.37 y_s9_i24_j23_k1 - 2.84 y_s9_i24_j23_k2
   - 3.33 y_s9_i25_j31_k0 - 2.86 y_s9_i25_j31_k1 - 3.88 y_s9_i25_j31_k2
   - 0.17 y_s9_i26_j27_k0 - 4.46 y_s9_i26_j27_k1 + 3.27 y_s9_i26_j27_k2
   - 6.57 y_s9_i27_j28_k0 - 1.49 y_s9_i27_j28_k1 + 2.8 y_s9_i27_j28_k2
   + 24.06 y_s9_i28_j25_k0 - 4 y_s9_i28_j25_k1 - 4.72 y_s9_i28_j25_k2
   - 1.55 y_s9_i29_j7_k0 + 1.84 y_s9_i29_j7_k1 - 3.89 y_s9_i29_j7_k2
   - 1.64 y_s9_i30_j29_k0 - 2.49 y_s9_i30_j29_k1 + 5.83 y_s9_i30_j29_k2
   + 4.4 y_s9_i31_j30_k0 - 2.3 y_s9_i31_j30_k1 - 1.94 y_s9_i31_j30_k2
   - 33.13 y_s9_i32_j40_k0 + 38.62 y_s9_i32_j40_k1 - 28.4 y_s9_i32_j40_k2
   - 5.75 y_s9_i33_j35_k0 + 5.14 y_s9_i33_j35_k1 - 4.83 y_s9_i33_j35_k2
   + 2.34 y_s9_i34_j33_k0 - 11.33 y_s9_i34_j33_k1 - 13.63 y_s9_i34_j33_k2
   - 14.13 y_s9_i35_j32_k0 - 12.93 y_s9_i35_j32_k1 - 9.34 y_s9_i35_j32_k2
   - 1.5 y_s9_i36_j49_k0 + 0.46 y_s9_i36_j49_k1 - 2.42 y_s9_i36_j49_k2
   + 1.13 y_s9_i37_j39_k0 - 39.21 y_s9_i37_j39_k1 - 46.39 y_s9_i37_j39_k2
   + 3.15 y_s9_i38_j15_k0 - 2.41 y_s9_i38_j15_k1 - 4.87 y_s9_i38_j15_k2
   + 64.6 y_s9_i39_j53_k0 + 84.81 y_s9_i39_j53_k1 - 25 y_s9_i39_j53_k2
   - 26.44 y_s9_i40_j37_k0 - 15.81 y_s9_i40_j37_k1 + 14.98 y_s9_i40_j37_k2
   - 2.09 y_s9_i41_j4_k0 - 4.02 y_s9_i41_j4_k1 + 0.84 y_s9_i41_j4_k2
   - 10.83 y_s9_i42_j44_k0 + 97.07 y_s9_i42_j44_k1 + 1.12 y_s9_i42_j44_k2
   - 3.67 y_s9_i43_j19_k0 + 1.01 y_s9_i43_j19_k1 - 13.78 y_s9_i43_j19_k2
   - 25.05 y_s9_i44_j50_k0 - 16.95 y_s9_i44_j50_k1 - 36.64 y_s9_i44_j50_k2
   + 5.18 y_s9_i45_j18_k0 - 7.43 y_s9_i45_j18_k1 + 0.45 y_s9_i45_j18_k2
   + 11.59 y_s9_i46_j42_k0 - 7.21 y_s9_i46_j42_k1 - 2.52 y_s9_i46_j42_k2
   - 1.7 y_s9_i47_j41_k0 - 2.07 y_s9_i47_j41_k1 - 15.35 y_s9_i47_j41_k2
   + 13.72 y_s9_i48_j51_k0 + 58.42 y_s9_i48_j51_k1 + 3.87 y_s9_i48_j51_k2
   - 5.5 y_s9_i49_j26_k0 - 4.02 y_s9_i49_j26_k1 - 1.55 y_s9_i49_j26_k2
   - 15 y_s9_i50_j48_k0 - 16.48 y_s9_i50_j48_k1 - 3.76 y_s9_i50_j48_k2
   + 57.44 y_s9_i51_j36_k0 - 7.77 y_s9_i51_j36_k1 - 20.03 y_s9_i51_j36_k2
   - 5.42 y_s9_i52_j47_k0 - 8.88 y_s9_i52_j47_k1 + 7.84 y_s9_i52_j47_k2
   - 3.34 y_s9_i53_j43_k0 - 4.36 y_s9_i53_j43_k1 - 2.77 y_s9_i53_j43_k2
   + 1.63 y_s63_i0_j2_k0 + 0.02 y_s63_i0_j2_k1 - 0.34 y_s63_i0_j2_k2
   - 6.35 y_s63_i1_j22_k0 - 3.5 y_s63_i1_j22_k1 + 0.93 y_s63_i1_j22_k2
   + 2.79 y_s63_i2_j1_k0 - 0.96 y_s63_i2_j1_k1 - 0.67 y_s63_i2_j1_k2
   - 11.73 y_s63_i3_j9_k0 - 12.63 y_s63_i3_j9_k1 - 5.69 y_s63_i3_j9_k2
   - 18.4 y_s63_i4_j34_k0 + 6.02 y_s63_i4_j34_k1 - 12.26 y_s63_i4_j34_k2
   - 4.4 y_s63_i5_j0_k0 - 4.64 y_s63_i5_j0_k1 - 5.54 y_s63_i5_j0_k2
   - 0.82 y_s63_i6_j52_k0 - 8.81 y_s63_i6_j52_k1 + 18.27 y_s63_i6_j52_k2
   + 0.57 y_s63_i7_j3_k0 - 2.37 y_s63_i7_j3_k1 + 1.43 y_s63_i7_j3_k2
   - 5.89 y_s63_i8_j10_k0 - 5.13 y_s63_i8_j10_k1 - 4.34 y_s63_i8_j10_k2
   - 7.45 y_s63_i9_j6_k0 + 0.28 y_s63_i9_j6_k1 - 3.96 y_s63_i9_j6_k2
   - 2.06 y_s63_i10_j5_k0 + 2.77 y_s63_i10_j5_k1 - 6.55 y_s63_i10_j5_k2
   - 3.22 y_s63_i11_j8_k0 + 3.07 y_s63_i11_j8_k1 - 3.04 y_s63_i11_j8_k2
   - 1.32 y_s63_i12_j11_k0 - 1.04 y_s63_i12_j11_k1 - 1.57 y_s63_i12_j11_k2
   + 10.99 y_s63_i13_j14_k0 - 6.78 y_s63_i13_j14_k1 + 1.13 y_s63_i13_j14_k2
   - 9.09 y_s63_i14_j12_k0 - 3.89 y_s63_i14_j12_k1 - 1.39 y_s63_i14_j12_k2
   - 10.57 y_s63_i15_j13_k0 - 0.77 y_s63_i15_j13_k1 + 2.59 y_s63_i15_j13_k2
   + 36.5 y_s63_i16_j17_k0 - 6.34 y_s63_i16_j17_k1 - 5.32 y_s63_i16_j17_k2
   - 3.86 y_s63_i17_j38_k0 - 3.65 y_s63_i17_j38_k1 - 5.16 y_s63_i17_j38_k2
   - 0.42 y_s63_i18_j20_k0 - 2.5 y_s63_i18_j20_k1 - 0.92 y_s63_i18_j20_k2
   - 0.35 y_s63_i19_j45_k0 - 2.07 y_s63_i19_j45_k1 - 2.05 y_s63_i19_j45_k2
   + 10.63 y_s63_i20_j16_k0 - 11.04 y_s63_i20_j16_k1
   - 11.01 y_s63_i20_j16_k2 - 2.33 y_s63_i21_j24_k0
   + 11.35 y_s63_i21_j24_k1 - 3.09 y_s63_i21_j24_k2 - 4.47 y_s63_i22_j21_k0
   - 3.17 y_s63_i22_j21_k1 - 4.79 y_s63_i22_j21_k2 - 9.59 y_s63_i23_j46_k0
   - 11.84 y_s63_i23_j46_k1 - 3.12 y_s63_i23_j46_k2 - 2.04 y_s63_i24_j23_k0
   + 19.05 y_s63_i24_j23_k1 + 0.58 y_s63_i24_j23_k2 - 4.45 y_s63_i25_j31_k0
   - 5.45 y_s63_i25_j31_k1 - 4.48 y_s63_i25_j31_k2 - 3.29 y_s63_i26_j27_k0
   - 2.31 y_s63_i26_j27_k1 - 4.34 y_s63_i26_j27_k2 - 1.74 y_s63_i27_j28_k0
   - 1.09 y_s63_i27_j28_k1 - 1.91 y_s63_i27_j28_k2 - 6.13 y_s63_i28_j25_k0
   - 4.8 y_s63_i28_j25_k1 + 114.48 y_s63_i28_j25_k2 - 5.12 y_s63_i29_j7_k0
   - 5 y_s63_i29_j7_k1 - 8.77 y_s63_i29_j7_k2 - 3.15 y_s63_i30_j29_k0
   - 1.68 y_s63_i30_j29_k1 - 3.43 y_s63_i30_j29_k2 - 3.62 y_s63_i31_j30_k0
   - 2.04 y_s63_i31_j30_k1 - 1.22 y_s63_i31_j30_k2 - 27.44 y_s63_i32_j40_k0
   + 533.39 y_s63_i32_j40_k1 - 30.17 y_s63_i32_j40_k2
   - 5.9 y_s63_i33_j35_k0 - 4.24 y_s63_i33_j35_k1 + 143 y_s63_i33_j35_k2
   - 7.95 y_s63_i34_j33_k0 - 12.27 y_s63_i34_j33_k1 - 8.44 y_s63_i34_j33_k2
   - 9.38 y_s63_i35_j32_k0 + 40.83 y_s63_i35_j32_k1
   + 249.12 y_s63_i35_j32_k2 - 1.8 y_s63_i36_j49_k0 - 0.92 y_s63_i36_j49_k1
   + 0.43 y_s63_i36_j49_k2 - 46.53 y_s63_i37_j39_k0
   - 43.17 y_s63_i37_j39_k1 - 31.21 y_s63_i37_j39_k2
   - 7.24 y_s63_i38_j15_k0 + 11.59 y_s63_i38_j15_k1 - 2.33 y_s63_i38_j15_k2
   - 24.44 y_s63_i39_j53_k0 - 4.23 y_s63_i39_j53_k1
   - 26.93 y_s63_i39_j53_k2 - 29.93 y_s63_i40_j37_k0
   - 21.65 y_s63_i40_j37_k1 - 14.73 y_s63_i40_j37_k2 - 5.51 y_s63_i41_j4_k0
   + 3.13 y_s63_i41_j4_k1 + 15.63 y_s63_i41_j4_k2 - 11.43 y_s63_i42_j44_k0
   - 12.16 y_s63_i42_j44_k1 + 0.92 y_s63_i42_j44_k2 - 4.2 y_s63_i43_j19_k0
   - 10.06 y_s63_i43_j19_k1 - 16.68 y_s63_i43_j19_k2
   - 21.74 y_s63_i44_j50_k0 - 12.28 y_s63_i44_j50_k1
   + 64.31 y_s63_i44_j50_k2 - 5.17 y_s63_i45_j18_k0 - 8.43 y_s63_i45_j18_k1
   + 3.67 y_s63_i45_j18_k2 - 2.71 y_s63_i46_j42_k0 - 8.74 y_s63_i46_j42_k1
   - 9.44 y_s63_i46_j42_k2 + 6.17 y_s63_i47_j41_k0
   + 121.88 y_s63_i47_j41_k1 - 14.64 y_s63_i47_j41_k2
   + 18.96 y_s63_i48_j51_k0 - 6.37 y_s63_i48_j51_k1 + 6.55 y_s63_i48_j51_k2
   - 4.68 y_s63_i49_j26_k0 - 3.79 y_s63_i49_j26_k1 + 1.12 y_s63_i49_j26_k2
   - 17.76 y_s63_i50_j48_k0 - 11.3 y_s63_i50_j48_k1 - 1.99 y_s63_i50_j48_k2
   - 27.86 y_s63_i51_j36_k0 - 19.17 y_s63_i51_j36_k1
   - 22.93 y_s63_i51_j36_k2 + 10.24 y_s63_i52_j47_k0
   - 7.37 y_s63_i52_j47_k1 + 3.85 y_s63_i52_j47_k2 - 6.76 y_s63_i53_j43_k0
   - 2.05 y_s63_i53_j43_k1 + 2.22 y_s63_i53_j43_k2 - 0.67 y_s43_i0_j2_k0
   + 0.79 y_s43_i0_j2_k1 + 0.06 y_s43_i0_j2_k2 - 4.19 y_s43_i1_j22_k0
   - 1.92 y_s43_i1_j22_k1 - 5.91 y_s43_i1_j22_k2 - 0.66 y_s43_i2_j1_k0
   - 0.66 y_s43_i2_j1_k1 + 3.77 y_s43_i2_j1_k2 - 8.87 y_s43_i3_j9_k0
   - 8.83 y_s43_i3_j9_k1 + 34.88 y_s43_i3_j9_k2 - 12.41 y_s43_i4_j34_k0
   + 19.62 y_s43_i4_j34_k1 - 15.37 y_s43_i4_j34_k2 - 3.64 y_s43_i5_j0_k0
   + 56.22 y_s43_i5_j0_k1 - 6.2 y_s43_i5_j0_k2 - 10.27 y_s43_i6_j52_k0
   + 5.55 y_s43_i6_j52_k1 - 6.25 y_s43_i6_j52_k2 - 3.01 y_s43_i7_j3_k0
   + 1.09 y_s43_i7_j3_k1 - 2.67 y_s43_i7_j3_k2 + 21.85 y_s43_i8_j10_k0
   - 6.04 y_s43_i8_j10_k1 + 56.94 y_s43_i8_j10_k2 - 11.69 y_s43_i9_j6_k0
   - 7.99 y_s43_i9_j6_k1 - 3.43 y_s43_i9_j6_k2 - 7.18 y_s43_i10_j5_k0
   - 5.01 y_s43_i10_j5_k1 - 5.56 y_s43_i10_j5_k2 - 4.28 y_s43_i11_j8_k0
   + 7.63 y_s43_i11_j8_k1 - 2.4 y_s43_i11_j8_k2 - 1.89 y_s43_i12_j11_k0
   - 1.84 y_s43_i12_j11_k1 - 0.91 y_s43_i12_j11_k2 - 3.95 y_s43_i13_j14_k0
   - 1.51 y_s43_i13_j14_k1 + 7.49 y_s43_i13_j14_k2 - 0.68 y_s43_i14_j12_k0
   + 7.79 y_s43_i14_j12_k1 - 9.13 y_s43_i14_j12_k2 - 5.07 y_s43_i15_j13_k0
   - 15.24 y_s43_i15_j13_k1 - 6.36 y_s43_i15_j13_k2 - 3.62 y_s43_i16_j17_k0
   + 6.04 y_s43_i16_j17_k1 + 9.39 y_s43_i16_j17_k2 - 1.5 y_s43_i17_j38_k0
   - 5.84 y_s43_i17_j38_k1 - 4.87 y_s43_i17_j38_k2 + 0.04 y_s43_i18_j20_k0
   - 2.92 y_s43_i18_j20_k1 - 2.58 y_s43_i18_j20_k2 - 1.48 y_s43_i19_j45_k0
   - 1.23 y_s43_i19_j45_k1 - 2.13 y_s43_i19_j45_k2 - 9.97 y_s43_i20_j16_k0
   - 12.34 y_s43_i20_j16_k1 - 2.09 y_s43_i20_j16_k2 - 3.95 y_s43_i21_j24_k0
   - 1.97 y_s43_i21_j24_k1 + 5.11 y_s43_i21_j24_k2 - 6.36 y_s43_i22_j21_k0
   - 2.19 y_s43_i22_j21_k1 - 6.47 y_s43_i22_j21_k2 + 0.77 y_s43_i23_j46_k0
   + 27.09 y_s43_i23_j46_k1 - 6.16 y_s43_i23_j46_k2 - 3.56 y_s43_i24_j23_k0
   - 2.9 y_s43_i24_j23_k1 - 0.87 y_s43_i24_j23_k2 - 4.99 y_s43_i25_j31_k0
   - 2.02 y_s43_i25_j31_k1 - 2.71 y_s43_i25_j31_k2 - 4.03 y_s43_i26_j27_k0
   - 3.48 y_s43_i26_j27_k1 - 0.56 y_s43_i26_j27_k2 - 6.85 y_s43_i27_j28_k0
   - 2.46 y_s43_i27_j28_k1 - 8.26 y_s43_i27_j28_k2 - 5.93 y_s43_i28_j25_k0
   - 4.84 y_s43_i28_j25_k1 + 18.22 y_s43_i28_j25_k2 + 3.72 y_s43_i29_j7_k0
   - 8.3 y_s43_i29_j7_k1 - 6.73 y_s43_i29_j7_k2 - 2.77 y_s43_i30_j29_k0
   - 2.71 y_s43_i30_j29_k1 + 2.1 y_s43_i30_j29_k2 - 2.81 y_s43_i31_j30_k0
   - 2.76 y_s43_i31_j30_k1 - 0.32 y_s43_i31_j30_k2 - 20.98 y_s43_i32_j40_k0
   - 36.26 y_s43_i32_j40_k1 - 13.94 y_s43_i32_j40_k2
   + 4.39 y_s43_i33_j35_k0 - 6.68 y_s43_i33_j35_k1 - 4.07 y_s43_i33_j35_k2
   - 10.79 y_s43_i34_j33_k0 - 14.44 y_s43_i34_j33_k1
   - 1.95 y_s43_i34_j33_k2 - 11.96 y_s43_i35_j32_k0
   - 13.42 y_s43_i35_j32_k1 - 11.98 y_s43_i35_j32_k2 - 1.4 y_s43_i36_j49_k0
   - 1.97 y_s43_i36_j49_k1 - 2.15 y_s43_i36_j49_k2
   + 953.82 y_s43_i37_j39_k0 - 47.73 y_s43_i37_j39_k1
   + 309.47 y_s43_i37_j39_k2 - 6.09 y_s43_i38_j15_k0 - 8.3 y_s43_i38_j15_k1
   - 8.58 y_s43_i38_j15_k2 - 13.86 y_s43_i39_j53_k0
   - 27.28 y_s43_i39_j53_k1 - 0.42 y_s43_i39_j53_k2 - 7.08 y_s43_i40_j37_k0
   - 9.25 y_s43_i40_j37_k1 - 1.31 y_s43_i40_j37_k2 - 4.85 y_s43_i41_j4_k0
   + 1.19 y_s43_i41_j4_k1 - 3.44 y_s43_i41_j4_k2 + 78.34 y_s43_i42_j44_k0
   + 0.17 y_s43_i42_j44_k1 - 3.14 y_s43_i42_j44_k2 - 15 y_s43_i43_j19_k0
   - 12.68 y_s43_i43_j19_k1 - 9.37 y_s43_i43_j19_k2
   - 12.79 y_s43_i44_j50_k0 + 51.88 y_s43_i44_j50_k1
   + 12.3 y_s43_i44_j50_k2 - 9.25 y_s43_i45_j18_k0 + 22.89 y_s43_i45_j18_k1
   + 14.55 y_s43_i45_j18_k2 + 0.58 y_s43_i46_j42_k0 - 9.47 y_s43_i46_j42_k1
   - 10.14 y_s43_i46_j42_k2 - 9.22 y_s43_i47_j41_k0 + 1.4 y_s43_i47_j41_k1
   - 14.89 y_s43_i47_j41_k2 - 9.66 y_s43_i48_j51_k0
   - 11.06 y_s43_i48_j51_k1 - 10.28 y_s43_i48_j51_k2
   - 2.55 y_s43_i49_j26_k0 - 4.89 y_s43_i49_j26_k1 + 6.19 y_s43_i49_j26_k2
   - 10.22 y_s43_i50_j48_k0 - 10.3 y_s43_i50_j48_k1
   - 10.78 y_s43_i50_j48_k2 - 27.83 y_s43_i51_j36_k0
   - 16.81 y_s43_i51_j36_k1 - 19.9 y_s43_i51_j36_k2 - 9.34 y_s43_i52_j47_k0
   - 1.27 y_s43_i52_j47_k1 + 4.5 y_s43_i52_j47_k2 - 3.15 y_s43_i53_j43_k0
   - 7.36 y_s43_i53_j43_k1 - 6.36 y_s43_i53_j43_k2 - 0.8 y_s72_i0_j2_k0
   - 0.49 y_s72_i0_j2_k1 - 0.52 y_s72_i0_j2_k2 + 4.14 y_s72_i1_j22_k0
   + 1.12 y_s72_i1_j22_k1 - 2.57 y_s72_i1_j22_k2 + 1.3 y_s72_i2_j1_k0
   - 0.93 y_s72_i2_j1_k1 - 1.39 y_s72_i2_j1_k2 + 30.88 y_s72_i3_j9_k0
   + 24.05 y_s72_i3_j9_k1 - 11.69 y_s72_i3_j9_k2 - 17.08 y_s72_i4_j34_k0
   - 0.98 y_s72_i4_j34_k1 - 15.93 y_s72_i4_j34_k2 - 5.73 y_s72_i5_j0_k0
   - 4.77 y_s72_i5_j0_k1 - 4.61 y_s72_i5_j0_k2 - 5 y_s72_i6_j52_k0
   - 8.24 y_s72_i6_j52_k1 - 9.89 y_s72_i6_j52_k2 + 9.87 y_s72_i7_j3_k0
   - 2.31 y_s72_i7_j3_k1 - 2.2 y_s72_i7_j3_k2 + 7.02 y_s72_i8_j10_k0
   + 71.39 y_s72_i8_j10_k1 - 5.19 y_s72_i8_j10_k2 - 6.77 y_s72_i9_j6_k0
   - 8.3 y_s72_i9_j6_k1 - 9.18 y_s72_i9_j6_k2 + 2.24 y_s72_i10_j5_k0
   - 2.11 y_s72_i10_j5_k1 + 30.58 y_s72_i10_j5_k2 - 4.07 y_s72_i11_j8_k0
   - 3.12 y_s72_i11_j8_k1 - 3.82 y_s72_i11_j8_k2 - 0.55 y_s72_i12_j11_k0
   - 1.08 y_s72_i12_j11_k1 - 0.98 y_s72_i12_j11_k2 + 26.05 y_s72_i13_j14_k0
   + 1.15 y_s72_i13_j14_k1 - 3.97 y_s72_i13_j14_k2 - 8.7 y_s72_i14_j12_k0
   + 3.26 y_s72_i14_j12_k1 - 6.31 y_s72_i14_j12_k2 - 11.67 y_s72_i15_j13_k0
   - 10.32 y_s72_i15_j13_k1 - 6.91 y_s72_i15_j13_k2 - 3.86 y_s72_i16_j17_k0
   - 7.13 y_s72_i16_j17_k1 - 3.37 y_s72_i16_j17_k2 - 1.53 y_s72_i17_j38_k0
   - 3.1 y_s72_i17_j38_k1 + 1.93 y_s72_i17_j38_k2 - 2.75 y_s72_i18_j20_k0
   - 0.39 y_s72_i18_j20_k1 - 0.33 y_s72_i18_j20_k2 - 1.04 y_s72_i19_j45_k0
   - 1.94 y_s72_i19_j45_k1 + 3.1 y_s72_i19_j45_k2 - 9.2 y_s72_i20_j16_k0
   - 12.47 y_s72_i20_j16_k1 + 11.91 y_s72_i20_j16_k2
   - 1.89 y_s72_i21_j24_k0 + 3.68 y_s72_i21_j24_k1 - 4.28 y_s72_i21_j24_k2
   - 3.47 y_s72_i22_j21_k0 - 5.3 y_s72_i22_j21_k1 - 1.56 y_s72_i22_j21_k2
   - 3.21 y_s72_i23_j46_k0 + 21.32 y_s72_i23_j46_k1
   + 21.53 y_s72_i23_j46_k2 - 2.6 y_s72_i24_j23_k0 - 0.98 y_s72_i24_j23_k1
   - 0.99 y_s72_i24_j23_k2 - 4.89 y_s72_i25_j31_k0 - 5.64 y_s72_i25_j31_k1
   - 5.58 y_s72_i25_j31_k2 - 4.62 y_s72_i26_j27_k0 - 1.76 y_s72_i26_j27_k1
   - 3.1 y_s72_i26_j27_k2 - 8.32 y_s72_i27_j28_k0 - 3.41 y_s72_i27_j28_k1
   - 5.92 y_s72_i27_j28_k2 - 2.5 y_s72_i28_j25_k0 - 5.35 y_s72_i28_j25_k1
   - 5.44 y_s72_i28_j25_k2 + 10.67 y_s72_i29_j7_k0 - 7.76 y_s72_i29_j7_k1
   - 0.82 y_s72_i29_j7_k2 - 2.12 y_s72_i30_j29_k0 + 11.36 y_s72_i30_j29_k1
   - 1.43 y_s72_i30_j29_k2 - 2.43 y_s72_i31_j30_k0 - 3.69 y_s72_i31_j30_k1
   - 1.6 y_s72_i31_j30_k2 - 34.48 y_s72_i32_j40_k0 - 17.79 y_s72_i32_j40_k1
   - 26.18 y_s72_i32_j40_k2 - 6.44 y_s72_i33_j35_k0 - 3.18 y_s72_i33_j35_k1
   - 5.91 y_s72_i33_j35_k2 - 7.89 y_s72_i34_j33_k0 - 11.71 y_s72_i34_j33_k1
   + 115.82 y_s72_i34_j33_k2 - 2.42 y_s72_i35_j32_k0
   - 15.61 y_s72_i35_j32_k1 - 7.64 y_s72_i35_j32_k2 - 2.32 y_s72_i36_j49_k0
   - 2.46 y_s72_i36_j49_k1 - 2.22 y_s72_i36_j49_k2 + 12.88 y_s72_i37_j39_k0
   + 12.01 y_s72_i37_j39_k1 - 42.24 y_s72_i37_j39_k2
   - 5.63 y_s72_i38_j15_k0 + 4.04 y_s72_i38_j15_k1 - 4.76 y_s72_i38_j15_k2
   - 25.86 y_s72_i39_j53_k0 + 35.53 y_s72_i39_j53_k1
   - 26.74 y_s72_i39_j53_k2 - 23.81 y_s72_i40_j37_k0
   + 42.27 y_s72_i40_j37_k1 - 27.35 y_s72_i40_j37_k2 - 1.84 y_s72_i41_j4_k0
   - 5.01 y_s72_i41_j4_k1 - 3.3 y_s72_i41_j4_k2 - 10.26 y_s72_i42_j44_k0
   + 7.3 y_s72_i42_j44_k1 - 10.27 y_s72_i42_j44_k2 - 9.99 y_s72_i43_j19_k0
   + 2.57 y_s72_i43_j19_k1 - 8.44 y_s72_i43_j19_k2 - 22.15 y_s72_i44_j50_k0
   - 18.37 y_s72_i44_j50_k1 + 2.98 y_s72_i44_j50_k2 - 5.32 y_s72_i45_j18_k0
   - 2.71 y_s72_i45_j18_k1 + 59.83 y_s72_i45_j18_k2 - 9.08 y_s72_i46_j42_k0
   - 4.98 y_s72_i46_j42_k1 - 10.29 y_s72_i46_j42_k2 - 9.26 y_s72_i47_j41_k0
   + 24.06 y_s72_i47_j41_k1 + 52.34 y_s72_i47_j41_k2
   - 8.14 y_s72_i48_j51_k0 - 7.14 y_s72_i48_j51_k1 - 10.3 y_s72_i48_j51_k2
   - 5.42 y_s72_i49_j26_k0 + 13.29 y_s72_i49_j26_k1 - 6.09 y_s72_i49_j26_k2
   - 14.66 y_s72_i50_j48_k0 + 22.53 y_s72_i50_j48_k1
   + 32.06 y_s72_i50_j48_k2 - 22.04 y_s72_i51_j36_k0
   - 27.59 y_s72_i51_j36_k1 - 8.61 y_s72_i51_j36_k2 - 7.64 y_s72_i52_j47_k0
   - 8.58 y_s72_i52_j47_k1 - 8.65 y_s72_i52_j47_k2 - 5.87 y_s72_i53_j43_k0
   - 5.22 y_s72_i53_j43_k1 - 3.57 y_s72_i53_j43_k2 <= -7983.05
Bounds
Binaries
 y_s67_i0_j2_k0 y_s67_i0_j2_k1 y_s67_i0_j2_k2 y_s67_i1_j22_k0
 y_s67_i1_j22_k1 y_s67_i1_j22_k2 y_s67_i2_j1_k0 y_s67_i2_j1_k1
 y_s67_i2_j1_k2 y_s67_i3_j9_k0 y_s67_i3_j9_k1 y_s67_i3_j9_k2
 y_s67_i4_j34_k0 y_s67_i4_j34_k1 y_s67_i4_j34_k2 y_s67_i5_j0_k0
 y_s67_i5_j0_k1 y_s67_i5_j0_k2 y_s67_i6_j52_k0 y_s67_i6_j52_k1
 y_s67_i6_j52_k2 y_s67_i7_j3_k0 y_s67_i7_j3_k1 y_s67_i7_j3_k2
 y_s67_i8_j10_k0 y_s67_i8_j10_k1 y_s67_i8_j10_k2 y_s67_i9_j6_k0
 y_s67_i9_j6_k1 y_s67_i9_j6_k2 y_s67_i10_j5_k0 y_s67_i10_j5_k1
 y_s67_i10_j5_k2 y_s67_i11_j8_k0 y_s67_i11_j8_k1 y_s67_i11_j8_k2
 y_s67_i12_j11_k0 y_s67_i12_j11_k1 y_s67_i12_j11_k2 y_s67_i13_j14_k0
 y_s67_i13_j14_k1 y_s67_i13_j14_k2 y_s67_i14_j12_k0 y_s67_i14_j12_k1
 y_s67_i14_j12_k2 y_s67_i15_j13_k0 y_s67_i15_j13_k1 y_s67_i15_j13_k2
 y_s67_i16_j17_k0 y_s67_i16_j17_k1 y_s67_i16_j17_k2 y_s67_i17_j38_k0
 y_s67_i17_j38_k1 y_s67_i17_j38_k2 y_s67_i18_j20_k0 y_s67_i18_j20_k1
 y_s67_i18_j20_k2 y_s67_i19_j45_k0 y_s67_i19_j45_k1 y_s67_i19_j45_k2
 y_s67_i20_j16_k0 y_s67_i20_j16_k1 y_s67_i20_j16_k2 y_s67_i21_j24_k0
 y_s67_i21_j24_k1 y_s67_i21_j24_k2 y_s67_i22_j21_k0 y_s67_i22_j21_k1
 y_s67_i22_j21_k2 y_s67_i23_j46_k0 y_s67_i23_j46_k1 y_s67_i23_j46_k2
 y_s67_i24_j23_k0 y_s67_i24_j23_k1 y_s67_i24_j23_k2 y_s67_i25_j31_k0
 y_s67_i25_j31_k1 y_s67_i25_j31_k2 y_s67_i26_j27_k0 y_s67_i26_j27_k1
 y_s67_i26_j27_k2 y_s67_i27_j28_k0 y_s67_i27_j28_k1 y_s67_i27_j28_k2
 y_s67_i28_j25_k0 y_s67_i28_j25_k1 y_s67_i28_j25_k2 y_s67_i29_j7_k0
 y_s67_i29_j7_k1 y_s67_i29_j7_k2 y_s67_i30_j29_k0 y_s67_i30_j29_k1
 y_s67_i30_j29_k2 y_s67_i31_j30_k0 y_s67_i31_j30_k1 y_s67_i31_j30_k2
 y_s67_i32_j40_k0 y_s67_i32_j40_k1 y_s67_i32_j40_k2 y_s67_i33_j35_k0
 y_s67_i33_j35_k1 y_s67_i33_j35_k2 y_s67_i34_j33_k0 y_s67_i34_j33_k1
 y_s67_i34_j33_k2 y_s67_i35_j32_k0 y_s67_i35_j32_k1 y_s67_i35_j32_k2
 y_s67_i36_j49_k0 y_s67_i36_j49_k1 y_s67_i36_j49_k2 y_s67_i37_j39_k0
 y_s67_i37_j39_k1 y_s67_i37_j39_k2 y_s67_i38_j15_k0 y_s67_i38_j15_k1
 y_s67_i38_j15_k2 y_s67_i39_j53_k0 y_s67_i39_j53_k1 y_s67_i39_j53_k2
 y_s67_i40_j37_k0 y_s67_i40_j37_k1 y_s67_i40_j37_k2 y_s67_i41_j4_k0
 y_s67_i41_j4_k1 y_s67_i41_j4_k2 y_s67_i42_j44_k0 y_s67_i42_j44_k1
 y_s67_i42_j44_k2 y_s67_i43_j19_k0 y_s67_i43_j19_k1 y_s67_i43_j19_k2
 y_s67_i44_j50_k0 y_s67_i44_j50_k1 y_s67_i44_j50_k2 y_s67_i45_j18_k0
 y_s67_i45_j18_k1 y_s67_i45_j18_k2 y_s67_i46_j42_k0 y_s67_i46_j42_k1
 y_s67_i46_j42_k2 y_s67_i47_j41_k0 y_s67_i47_j41_k1 y_s67_i47_j41_k2
 y_s67_i48_j51_k0 y_s67_i48_j51_k1 y_s67_i48_j51_k2 y_s67_i49_j26_k0
 y_s67_i49_j26_k1 y_s67_i49_j26_k2 y_s67_i50_j48_k0 y_s67_i50_j48_k1
 y_s67_i50_j48_k2 y_s67_i51_j36_k0 y_s67_i51_j36_k1 y_s67_i51_j36_k2
 y_s67_i52_j47_k0 y_s67_i52_j47_k1 y_s67_i52_j47_k2 y_s67_i53_j43_k0
 y_s67_i53_j43_k1 y_s67_i53_j43_k2 y_s80_i0_j2_k0 y_s80_i0_j2_k1
 y_s80_i0_j2_k2 y_s80_i1_j22_k0 y_s80_i1_j22_k1 y_s80_i1_j22_k2
 y_s80_i2_j1_k0 y_s80_i2_j1_k1 y_s80_i2_j1_k2 y_s80_i3_j9_k0 y_s80_i3_j9_k1
 y_s80_i3_j9_k2 y_s80_i4_j34_k0 y_s80_i4_j34_k1 y_s80_i4_j34_k2
 y_s80_i5_j0_k0 y_s80_i5_j0_k1 y_s80_i5_j0_k2 y_s80_i6_j52_k0
 y_s80_i6_j52_k1 y_s80_i6_j52_k2 y_s80_i7_j3_k0 y_s80_i7_j3_k1
 y_s80_i7_j3_k2 y_s80_i8_j10_k0 y_s80_i8_j10_k1 y_s80_i8_j10_k2
 y_s80_i9_j6_k0 y_s80_i9_j6_k1 y_s80_i9_j6_k2 y_s80_i10_j5_k0
 y_s80_i10_j5_k1 y_s80_i10_j5_k2 y_s80_i11_j8_k0 y_s80_i11_j8_k1
 y_s80_i11_j8_k2 y_s80_i12_j11_k0 y_s80_i12_j11_k1 y_s80_i12_j11_k2
 y_s80_i13_j14_k0 y_s80_i13_j14_k1 y_s80_i13_j14_k2 y_s80_i14_j12_k0
 y_s80_i14_j12_k1 y_s80_i14_j12_k2 y_s80_i15_j13_k0 y_s80_i15_j13_k1
 y_s80_i15_j13_k2 y_s80_i16_j17_k0 y_s80_i16_j17_k1 y_s80_i16_j17_k2
 y_s80_i17_j38_k0 y_s80_i17_j38_k1 y_s80_i17_j38_k2 y_s80_i18_j20_k0
 y_s80_i18_j20_k1 y_s80_i18_j20_k2 y_s80_i19_j45_k0 y_s80_i19_j45_k1
 y_s80_i19_j45_k2 y_s80_i20_j16_k0 y_s80_i20_j16_k1 y_s80_i20_j16_k2
 y_s80_i21_j24_k0 y_s80_i21_j24_k1 y_s80_i21_j24_k2 y_s80_i22_j21_k0
 y_s80_i22_j21_k1 y_s80_i22_j21_k2 y_s80_i23_j46_k0 y_s80_i23_j46_k1
 y_s80_i23_j46_k2 y_s80_i24_j23_k0 y_s80_i24_j23_k1 y_s80_i24_j23_k2
 y_s80_i25_j31_k0 y_s80_i25_j31_k1 y_s80_i25_j31_k2 y_s80_i26_j27_k0
 y_s80_i26_j27_k1 y_s80_i26_j27_k2 y_s80_i27_j28_k0 y_s80_i27_j28_k1
 y_s80_i27_j28_k2 y_s80_i28_j25_k0 y_s80_i28_j25_k1 y_s80_i28_j25_k2
 y_s80_i29_j7_k0 y_s80_i29_j7_k1 y_s80_i29_j7_k2 y_s80_i30_j29_k0
 y_s80_i30_j29_k1 y_s80_i30_j29_k2 y_s80_i31_j30_k0 y_s80_i31_j30_k1
 y_s80_i31_j30_k2 y_s80_i32_j40_k0 y_s80_i32_j40_k1 y_s80_i32_j40_k2
 y_s80_i33_j35_k0 y_s80_i33_j35_k1 y_s80_i33_j35_k2 y_s80_i34_j33_k0
 y_s80_i34_j33_k1 y_s80_i34_j33_k2 y_s80_i35_j32_k0 y_s80_i35_j32_k1
 y_s80_i35_j32_k2 y_s80_i36_j49_k0 y_s80_i36_j49_k1 y_s80_i36_j49_k2
 y_s80_i37_j39_k0 y_s80_i37_j39_k1 y_s80_i37_j39_k2 y_s80_i38_j15_k0
 y_s80_i38_j15_k1 y_s80_i38_j15_k2 y_s80_i39_j53_k0 y_s80_i39_j53_k1
 y_s80_i39_j53_k2 y_s80_i40_j37_k0 y_s80_i40_j37_k1 y_s80_i40_j37_k2
 y_s80_i41_j4_k0 y_s80_i41_j4_k1 y_s80_i41_j4_k2 y_s80_i42_j44_k0
 y_s80_i42_j44_k1 y_s80_i42_j44_k2 y_s80_i43_j19_k0 y_s80_i43_j19_k1
 y_s80_i43_j19_k2 y_s80_i44_j50_k0 y_s80_i44_j50_k1 y_s80_i44_j50_k2
 y_s80_i45_j18_k0 y_s80_i45_j18_k1 y_s80_i45_j18_k2 y_s80_i46_j42_k0
 y_s80_i46_j42_k1 y_s80_i46_j42_k2 y_s80_i47_j41_k0 y_s80_i47_j41_k1
 y_s80_i47_j41_k2 y_s80_i48_j51_k0 y_s80_i48_j51_k1 y_s80_i48_j51_k2
 y_s80_i49_j26_k0 y_s80_i49_j26_k1 y_s80_i49_j26_k2 y_s80_i50_j48_k0
 y_s80_i50_j48_k1 y_s80_i50_j48_k2 y_s80_i51_j36_k0 y_s80_i51_j36_k1
 y_s80_i51_j36_k2 y_s80_i52_j47_k0 y_s80_i52_j47_k1 y_s80_i52_j47_k2
 y_s80_i53_j43_k0 y_s80_i53_j43_k1 y_s80_i53_j43_k2 y_s55_i0_j2_k0
 y_s55_i0_j2_k1 y_s55_i0_j2_k2 y_s55_i1_j22_k0 y_s55_i1_j22_k1
 y_s55_i1_j22_k2 y_s55_i2_j1_k0 y_s55_i2_j1_k1 y_s55_i2_j1_k2
 y_s55_i3_j9_k0 y_s55_i3_j9_k1 y_s55_i3_j9_k2 y_s55_i4_j34_k0
 y_s55_i4_j34_k1 y_s55_i4_j34_k2 y_s55_i5_j0_k0 y_s55_i5_j0_k1
 y_s55_i5_j0_k2 y_s55_i6_j52_k0 y_s55_i6_j52_k1 y_s55_i6_j52_k2
 y_s55_i7_j3_k0 y_s55_i7_j3_k1 y_s55_i7_j3_k2 y_s55_i8_j10_k0
 y_s55_i8_j10_k1 y_s55_i8_j10_k2 y_s55_i9_j6_k0 y_s55_i9_j6_k1
 y_s55_i9_j6_k2 y_s55_i10_j5_k0 y_s55_i10_j5_k1 y_s55_i10_j5_k2
 y_s55_i11_j8_k0 y_s55_i11_j8_k1 y_s55_i11_j8_k2 y_s55_i12_j11_k0
 y_s55_i12_j11_k1 y_s55_i12_j11_k2 y_s55_i13_j14_k0 y_s55_i13_j14_k1
 y_s55_i13_j14_k2 y_s55_i14_j12_k0 y_s55_i14_j12_k1 y_s55_i14_j12_k2
 y_s55_i15_j13_k0 y_s55_i15_j13_k1 y_s55_i15_j13_k2 y_s55_i16_j17_k0
 y_s55_i16_j17_k1 y_s55_i16_j17_k2 y_s55_i17_j38_k0 y_s55_i17_j38_k1
 y_s55_i17_j38_k2 y_s55_i18_j20_k0 y_s55_i18_j20_k1 y_s55_i18_j20_k2
 y_s55_i19_j45_k0 y_s55_i19_j45_k1 y_s55_i19_j45_k2 y_s55_i20_j16_k0
 y_s55_i20_j16_k1 y_s55_i20_j16_k2 y_s55_i21_j24_k0 y_s55_i21_j24_k1
 y_s55_i21_j24_k2 y_s55_i22_j21_k0 y_s55_i22_j21_k1 y_s55_i22_j21_k2
 y_s55_i23_j46_k0 y_s55_i23_j46_k1 y_s55_i23_j46_k2 y_s55_i24_j23_k0
 y_s55_i24_j23_k1 y_s55_i24_j23_k2 y_s55_i25_j31_k0 y_s55_i25_j31_k1
 y_s55_i25_j31_k2 y_s55_i26_j27_k0 y_s55_i26_j27_k1 y_s55_i26_j27_k2
 y_s55_i27_j28_k0 y_s55_i27_j28_k1 y_s55_i27_j28_k2 y_s55_i28_j25_k0
 y_s55_i28_j25_k1 y_s55_i28_j25_k2 y_s55_i29_j7_k0 y_s55_i29_j7_k1
 y_s55_i29_j7_k2 y_s55_i30_j29_k0 y_s55_i30_j29_k1 y_s55_i30_j29_k2
 y_s55_i31_j30_k0 y_s55_i31_j30_k1 y_s55_i31_j30_k2 y_s55_i32_j40_k0
 y_s55_i32_j40_k1 y_s55_i32_j40_k2 y_s55_i33_j35_k0 y_s55_i33_j35_k1
 y_s55_i33_j35_k2 y_s55_i34_j33_k0 y_s55_i34_j33_k1 y_s55_i34_j33_k2
 y_s55_i35_j32_k0 y_s55_i35_j32_k1 y_s55_i35_j32_k2 y_s55_i36_j49_k0
 y_s55_i36_j49_k1 y_s55_i36_j49_k2 y_s55_i37_j39_k0 y_s55_i37_j39_k1
 y_s55_i37_j39_k2 y_s55_i38_j15_k0 y_s55_i38_j15_k1 y_s55_i38_j15_k2
 y_s55_i39_j53_k0 y_s55_i39_j53_k1 y_s55_i39_j53_k2 y_s55_i40_j37_k0
 y_s55_i40_j37_k1 y_s55_i40_j37_k2 y_s55_i41_j4_k0 y_s55_i41_j4_k1
 y_s55_i41_j4_k2 y_s55_i42_j44_k0 y_s55_i42_j44_k1 y_s55_i42_j44_k2
 y_s55_i43_j19_k0 y_s55_i43_j19_k1 y_s55_i43_j19_k2 y_s55_i44_j50_k0
 y_s55_i44_j50_k1 y_s55_i44_j50_k2 y_s55_i45_j18_k0 y_s55_i45_j18_k1
 y_s55_i45_j18_k2 y_s55_i46_j42_k0 y_s55_i46_j42_k1 y_s55_i46_j42_k2
 y_s55_i47_j41_k0 y_s55_i47_j41_k1 y_s55_i47_j41_k2 y_s55_i48_j51_k0
 y_s55_i48_j51_k1 y_s55_i48_j51_k2 y_s55_i49_j26_k0 y_s55_i49_j26_k1
 y_s55_i49_j26_k2 y_s55_i50_j48_k0 y_s55_i50_j48_k1 y_s55_i50_j48_k2
 y_s55_i51_j36_k0 y_s55_i51_j36_k1 y_s55_i51_j36_k2 y_s55_i52_j47_k0
 y_s55_i52_j47_k1 y_s55_i52_j47_k2 y_s55_i53_j43_k0 y_s55_i53_j43_k1
 y_s55_i53_j43_k2 y_s4_i0_j2_k0 y_s4_i0_j2_k1 y_s4_i0_j2_k2 y_s4_i1_j22_k0
 y_s4_i1_j22_k1 y_s4_i1_j22_k2 y_s4_i2_j1_k0 y_s4_i2_j1_k1 y_s4_i2_j1_k2
 y_s4_i3_j9_k0 y_s4_i3_j9_k1 y_s4_i3_j9_k2 y_s4_i4_j34_k0 y_s4_i4_j34_k1
 y_s4_i4_j34_k2 y_s4_i5_j0_k0 y_s4_i5_j0_k1 y_s4_i5_j0_k2 y_s4_i6_j52_k0
 y_s4_i6_j52_k1 y_s4_i6_j52_k2 y_s4_i7_j3_k0 y_s4_i7_j3_k1 y_s4_i7_j3_k2
 y_s4_i8_j10_k0 y_s4_i8_j10_k1 y_s4_i8_j10_k2 y_s4_i9_j6_k0 y_s4_i9_j6_k1
 y_s4_i9_j6_k2 y_s4_i10_j5_k0 y_s4_i10_j5_k1 y_s4_i10_j5_k2 y_s4_i11_j8_k0
 y_s4_i11_j8_k1 y_s4_i11_j8_k2 y_s4_i12_j11_k0 y_s4_i12_j11_k1
 y_s4_i12_j11_k2 y_s4_i13_j14_k0 y_s4_i13_j14_k1 y_s4_i13_j14_k2
 y_s4_i14_j12_k0 y_s4_i14_j12_k1 y_s4_i14_j12_k2 y_s4_i15_j13_k0
 y_s4_i15_j13_k1 y_s4_i15_j13_k2 y_s4_i16_j17_k0 y_s4_i16_j17_k1
 y_s4_i16_j17_k2 y_s4_i17_j38_k0 y_s4_i17_j38_k1 y_s4_i17_j38_k2
 y_s4_i18_j20_k0 y_s4_i18_j20_k1 y_s4_i18_j20_k2 y_s4_i19_j45_k0
 y_s4_i19_j45_k1 y_s4_i19_j45_k2 y_s4_i20_j16_k0 y_s4_i20_j16_k1
 y_s4_i20_j16_k2 y_s4_i21_j24_k0 y_s4_i21_j24_k1 y_s4_i21_j24_k2
 y_s4_i22_j21_k0 y_s4_i22_j21_k1 y_s4_i22_j21_k2 y_s4_i23_j46_k0
 y_s4_i23_j46_k1 y_s4_i23_j46_k2 y_s4_i24_j23_k0 y_s4_i24_j23_k1
 y_s4_i24_j23_k2 y_s4_i25_j31_k0 y_s4_i25_j31_k1 y_s4_i25_j31_k2
 y_s4_i26_j27_k0 y_s4_i26_j27_k1 y_s4_i26_j27_k2 y_s4_i27_j28_k0
 y_s4_i27_j28_k1 y_s4_i27_j28_k2 y_s4_i28_j25_k0 y_s4_i28_j25_k1
 y_s4_i28_j25_k2 y_s4_i29_j7_k0 y_s4_i29_j7_k1 y_s4_i29_j7_k2
 y_s4_i30_j29_k0 y_s4_i30_j29_k1 y_s4_i30_j29_k2 y_s4_i31_j30_k0
 y_s4_i31_j30_k1 y_s4_i31_j30_k2 y_s4_i32_j40_k0 y_s4_i32_j40_k1
 y_s4_i32_j40_k2 y_s4_i33_j35_k0 y_s4_i33_j35_k1 y_s4_i33_j35_k2
 y_s4_i34_j33_k0 y_s4_i34_j33_k1 y_s4_i34_j33_k2 y_s4_i35_j32_k0
 y_s4_i35_j32_k1 y_s4_i35_j32_k2 y_s4_i36_j49_k0 y_s4_i36_j49_k1
 y_s4_i36_j49_k2 y_s4_i37_j39_k0 y_s4_i37_j39_k1 y_s4_i37_j39_k2
 y_s4_i38_j15_k0 y_s4_i38_j15_k1 y_s4_i38_j15_k2 y_s4_i39_j53_k0
 y_s4_i39_j53_k1 y_s4_i39_j53_k2 y_s4_i40_j37_k0 y_s4_i40_j37_k1
 y_s4_i40_j37_k2 y_s4_i41_j4_k0 y_s4_i41_j4_k1 y_s4_i41_j4_k2
 y_s4_i42_j44_k0 y_s4_i42_j44_k1 y_s4_i42_j44_k2 y_s4_i43_j19_k0
 y_s4_i43_j19_k1 y_s4_i43_j19_k2 y_s4_i44_j50_k0 y_s4_i44_j50_k1
 y_s4_i44_j50_k2 y_s4_i45_j18_k0 y_s4_i45_j18_k1 y_s4_i45_j18_k2
 y_s4_i46_j42_k0 y_s4_i46_j42_k1 y_s4_i46_j42_k2 y_s4_i47_j41_k0
 y_s4_i47_j41_k1 y_s4_i47_j41_k2 y_s4_i48_j51_k0 y_s4_i48_j51_k1
 y_s4_i48_j51_k2 y_s4_i49_j26_k0 y_s4_i49_j26_k1 y_s4_i49_j26_k2
 y_s4_i50_j48_k0 y_s4_i50_j48_k1 y_s4_i50_j48_k2 y_s4_i51_j36_k0
 y_s4_i51_j36_k1 y_s4_i51_j36_k2 y_s4_i52_j47_k0 y_s4_i52_j47_k1
 y_s4_i52_j47_k2 y_s4_i53_j43_k0 y_s4_i53_j43_k1 y_s4_i53_j43_k2
 y_s5_i0_j2_k0 y_s5_i0_j2_k1 y_s5_i0_j2_k2 y_s5_i1_j22_k0 y_s5_i1_j22_k1
 y_s5_i1_j22_k2 y_s5_i2_j1_k0 y_s5_i2_j1_k1 y_s5_i2_j1_k2 y_s5_i3_j9_k0
 y_s5_i3_j9_k1 y_s5_i3_j9_k2 y_s5_i4_j34_k0 y_s5_i4_j34_k1 y_s5_i4_j34_k2
 y_s5_i5_j0_k0 y_s5_i5_j0_k1 y_s5_i5_j0_k2 y_s5_i6_j52_k0 y_s5_i6_j52_k1
 y_s5_i6_j52_k2 y_s5_i7_j3_k0 y_s5_i7_j3_k1 y_s5_i7_j3_k2 y_s5_i8_j10_k0
 y_s5_i8_j10_k1 y_s5_i8_j10_k2 y_s5_i9_j6_k0 y_s5_i9_j6_k1 y_s5_i9_j6_k2
 y_s5_i10_j5_k0 y_s5_i10_j5_k1 y_s5_i10_j5_k2 y_s5_i11_j8_k0 y_s5_i11_j8_k1
 y_s5_i11_j8_k2 y_s5_i12_j11_k0 y_s5_i12_j11_k1 y_s5_i12_j11_k2
 y_s5_i13_j14_k0 y_s5_i13_j14_k1 y_s5_i13_j14_k2 y_s5_i14_j12_k0
 y_s5_i14_j12_k1 y_s5_i14_j12_k2 y_s5_i15_j13_k0 y_s5_i15_j13_k1
 y_s5_i15_j13_k2 y_s5_i16_j17_k0 y_s5_i16_j17_k1 y_s5_i16_j17_k2
 y_s5_i17_j38_k0 y_s5_i17_j38_k1 y_s5_i17_j38_k2 y_s5_i18_j20_k0
 y_s5_i18_j20_k1 y_s5_i18_j20_k2 y_s5_i19_j45_k0 y_s5_i19_j45_k1
 y_s5_i19_j45_k2 y_s5_i20_j16_k0 y_s5_i20_j16_k1 y_s5_i20_j16_k2
 y_s5_i21_j24_k0 y_s5_i21_j24_k1 y_s5_i21_j24_k2 y_s5_i22_j21_k0
 y_s5_i22_j21_k1 y_s5_i22_j21_k2 y_s5_i23_j46_k0 y_s5_i23_j46_k1
 y_s5_i23_j46_k2 y_s5_i24_j23_k0 y_s5_i24_j23_k1 y_s5_i24_j23_k2
 y_s5_i25_j31_k0 y_s5_i25_j31_k1 y_s5_i25_j31_k2 y_s5_i26_j27_k0
 y_s5_i26_j27_k1 y_s5_i26_j27_k2 y_s5_i27_j28_k0 y_s5_i27_j28_k1
 y_s5_i27_j28_k2 y_s5_i28_j25_k0 y_s5_i28_j25_k1 y_s5_i28_j25_k2
 y_s5_i29_j7_k0 y_s5_i29_j7_k1 y_s5_i29_j7_k2 y_s5_i30_j29_k0
 y_s5_i30_j29_k1 y_s5_i30_j29_k2 y_s5_i31_j30_k0 y_s5_i31_j30_k1
 y_s5_i31_j30_k2 y_s5_i32_j40_k0 y_s5_i32_j40_k1 y_s5_i32_j40_k2
 y_s5_i33_j35_k0 y_s5_i33_j35_k1 y_s5_i33_j35_k2 y_s5_i34_j33_k0
 y_s5_i34_j33_k1 y_s5_i34_j33_k2 y_s5_i35_j32_k0 y_s5_i35_j32_k1
 y_s5_i35_j32_k2 y_s5_i36_j49_k0 y_s5_i36_j49_k1 y_s5_i36_j49_k2
 y_s5_i37_j39_k0 y_s5_i37_j39_k1 y_s5_i37_j39_k2 y_s5_i38_j15_k0
 y_s5_i38_j15_k1 y_s5_i38_j15_k2 y_s5_i39_j53_k0 y_s5_i39_j53_k1
 y_s5_i39_j53_k2 y_s5_i40_j37_k0 y_s5_i40_j37_k1 y_s5_i40_j37_k2
 y_s5_i41_j4_k0 y_s5_i41_j4_k1 y_s5_i41_j4_k2 y_s5_i42_j44_k0
 y_s5_i42_j44_k1 y_s5_i42_j44_k2 y_s5_i43_j19_k0 y_s5_i43_j19_k1
 y_s5_i43_j19_k2 y_s5_i44_j50_k0 y_s5_i44_j50_k1 y_s5_i44_j50_k2
 y_s5_i45_j18_k0 y_s5_i45_j18_k1 y_s5_i45_j18_k2 y_s5_i46_j42_k0
 y_s5_i46_j42_k1 y_s5_i46_j42_k2 y_s5_i47_j41_k0 y_s5_i47_j41_k1
 y_s5_i47_j41_k2 y_s5_i48_j51_k0 y_s5_i48_j51_k1 y_s5_i48_j51_k2
 y_s5_i49_j26_k0 y_s5_i49_j26_k1 y_s5_i49_j26_k2 y_s5_i50_j48_k0
 y_s5_i50_j48_k1 y_s5_i50_j48_k2 y_s5_i51_j36_k0 y_s5_i51_j36_k1
 y_s5_i51_j36_k2 y_s5_i52_j47_k0 y_s5_i52_j47_k1 y_s5_i52_j47_k2
 y_s5_i53_j43_k0 y_s5_i53_j43_k1 y_s5_i53_j43_k2 y_s62_i0_j2_k0
 y_s62_i0_j2_k1 y_s62_i0_j2_k2 y_s62_i1_j22_k0 y_s62_i1_j22_k1
 y_s62_i1_j22_k2 y_s62_i2_j1_k0 y_s62_i2_j1_k1 y_s62_i2_j1_k2
 y_s62_i3_j9_k0 y_s62_i3_j9_k1 y_s62_i3_j9_k2 y_s62_i4_j34_k0
 y_s62_i4_j34_k1 y_s62_i4_j34_k2 y_s62_i5_j0_k0 y_s62_i5_j0_k1
 y_s62_i5_j0_k2 y_s62_i6_j52_k0 y_s62_i6_j52_k1 y_s62_i6_j52_k2
 y_s62_i7_j3_k0 y_s62_i7_j3_k1 y_s62_i7_j3_k2 y_s62_i8_j10_k0
 y_s62_i8_j10_k1 y_s62_i8_j10_k2 y_s62_i9_j6_k0 y_s62_i9_j6_k1
 y_s62_i9_j6_k2 y_s62_i10_j5_k0 y_s62_i10_j5_k1 y_s62_i10_j5_k2
 y_s62_i11_j8_k0 y_s62_i11_j8_k1 y_s62_i11_j8_k2 y_s62_i12_j11_k0
 y_s62_i12_j11_k1 y_s62_i12_j11_k2 y_s62_i13_j14_k0 y_s62_i13_j14_k1
 y_s62_i13_j14_k2 y_s62_i14_j12_k0 y_s62_i14_j12_k1 y_s62_i14_j12_k2
 y_s62_i15_j13_k0 y_s62_i15_j13_k1 y_s62_i15_j13_k2 y_s62_i16_j17_k0
 y_s62_i16_j17_k1 y_s62_i16_j17_k2 y_s62_i17_j38_k0 y_s62_i17_j38_k1
 y_s62_i17_j38_k2 y_s62_i18_j20_k0 y_s62_i18_j20_k1 y_s62_i18_j20_k2
 y_s62_i19_j45_k0 y_s62_i19_j45_k1 y_s62_i19_j45_k2 y_s62_i20_j16_k0
 y_s62_i20_j16_k1 y_s62_i20_j16_k2 y_s62_i21_j24_k0 y_s62_i21_j24_k1
 y_s62_i21_j24_k2 y_s62_i22_j21_k0 y_s62_i22_j21_k1 y_s62_i22_j21_k2
 y_s62_i23_j46_k0 y_s62_i23_j46_k1 y_s62_i23_j46_k2 y_s62_i24_j23_k0
 y_s62_i24_j23_k1 y_s62_i24_j23_k2 y_s62_i25_j31_k0 y_s62_i25_j31_k1
 y_s62_i25_j31_k2 y_s62_i26_j27_k0 y_s62_i26_j27_k1 y_s62_i26_j27_k2
 y_s62_i27_j28_k0 y_s62_i27_j28_k1 y_s62_i27_j28_k2 y_s62_i28_j25_k0
 y_s62_i28_j25_k1 y_s62_i28_j25_k2 y_s62_i29_j7_k0 y_s62_i29_j7_k1
 y_s62_i29_j7_k2 y_s62_i30_j29_k0 y_s62_i30_j29_k1 y_s62_i30_j29_k2
 y_s62_i31_j30_k0 y_s62_i31_j30_k1 y_s62_i31_j30_k2 y_s62_i32_j40_k0
 y_s62_i32_j40_k1 y_s62_i32_j40_k2 y_s62_i33_j35_k0 y_s62_i33_j35_k1
 y_s62_i33_j35_k2 y_s62_i34_j33_k0 y_s62_i34_j33_k1 y_s62_i34_j33_k2
 y_s62_i35_j32_k0 y_s62_i35_j32_k1 y_s62_i35_j32_k2 y_s62_i36_j49_k0
 y_s62_i36_j49_k1 y_s62_i36_j49_k2 y_s62_i37_j39_k0 y_s62_i37_j39_k1
 y_s62_i37_j39_k2 y_s62_i38_j15_k0 y_s62_i38_j15_k1 y_s62_i38_j15_k2
 y_s62_i39_j53_k0 y_s62_i39_j53_k1 y_s62_i39_j53_k2 y_s62_i40_j37_k0
 y_s62_i40_j37_k1 y_s62_i40_j37_k2 y_s62_i41_j4_k0 y_s62_i41_j4_k1
 y_s62_i41_j4_k2 y_s62_i42_j44_k0 y_s62_i42_j44_k1 y_s62_i42_j44_k2
 y_s62_i43_j19_k0 y_s62_i43_j19_k1 y_s62_i43_j19_k2 y_s62_i44_j50_k0
 y_s62_i44_j50_k1 y_s62_i44_j50_k2 y_s62_i45_j18_k0 y_s62_i45_j18_k1
 y_s62_i45_j18_k2 y_s62_i46_j42_k0 y_s62_i46_j42_k1 y_s62_i46_j42_k2
 y_s62_i47_j41_k0 y_s62_i47_j41_k1 y_s62_i47_j41_k2 y_s62_i48_j51_k0
 y_s62_i48_j51_k1 y_s62_i48_j51_k2 y_s62_i49_j26_k0 y_s62_i49_j26_k1
 y_s62_i49_j26_k2 y_s62_i50_j48_k0 y_s62_i50_j48_k1 y_s62_i50_j48_k2
 y_s62_i51_j36_k0 y_s62_i51_j36_k1 y_s62_i51_j36_k2 y_s62_i52_j47_k0
 y_s62_i52_j47_k1 y_s62_i52_j47_k2 y_s62_i53_j43_k0 y_s62_i53_j43_k1
 y_s62_i53_j43_k2 y_s78_i0_j2_k0 y_s78_i0_j2_k1 y_s78_i0_j2_k2
 y_s78_i1_j22_k0 y_s78_i1_j22_k1 y_s78_i1_j22_k2 y_s78_i2_j1_k0
 y_s78_i2_j1_k1 y_s78_i2_j1_k2 y_s78_i3_j9_k0 y_s78_i3_j9_k1 y_s78_i3_j9_k2
 y_s78_i4_j34_k0 y_s78_i4_j34_k1 y_s78_i4_j34_k2 y_s78_i5_j0_k0
 y_s78_i5_j0_k1 y_s78_i5_j0_k2 y_s78_i6_j52_k0 y_s78_i6_j52_k1
 y_s78_i6_j52_k2 y_s78_i7_j3_k0 y_s78_i7_j3_k1 y_s78_i7_j3_k2
 y_s78_i8_j10_k0 y_s78_i8_j10_k1 y_s78_i8_j10_k2 y_s78_i9_j6_k0
 y_s78_i9_j6_k1 y_s78_i9_j6_k2 y_s78_i10_j5_k0 y_s78_i10_j5_k1
 y_s78_i10_j5_k2 y_s78_i11_j8_k0 y_s78_i11_j8_k1 y_s78_i11_j8_k2
 y_s78_i12_j11_k0 y_s78_i12_j11_k1 y_s78_i12_j11_k2 y_s78_i13_j14_k0
 y_s78_i13_j14_k1 y_s78_i13_j14_k2 y_s78_i14_j12_k0 y_s78_i14_j12_k1
 y_s78_i14_j12_k2 y_s78_i15_j13_k0 y_s78_i15_j13_k1 y_s78_i15_j13_k2
 y_s78_i16_j17_k0 y_s78_i16_j17_k1 y_s78_i16_j17_k2 y_s78_i17_j38_k0
 y_s78_i17_j38_k1 y_s78_i17_j38_k2 y_s78_i18_j20_k0 y_s78_i18_j20_k1
 y_s78_i18_j20_k2 y_s78_i19_j45_k0 y_s78_i19_j45_k1 y_s78_i19_j45_k2
 y_s78_i20_j16_k0 y_s78_i20_j16_k1 y_s78_i20_j16_k2 y_s78_i21_j24_k0
 y_s78_i21_j24_k1 y_s78_i21_j24_k2 y_s78_i22_j21_k0 y_s78_i22_j21_k1
 y_s78_i22_j21_k2 y_s78_i23_j46_k0 y_s78_i23_j46_k1 y_s78_i23_j46_k2
 y_s78_i24_j23_k0 y_s78_i24_j23_k1 y_s78_i24_j23_k2 y_s78_i25_j31_k0
 y_s78_i25_j31_k1 y_s78_i25_j31_k2 y_s78_i26_j27_k0 y_s78_i26_j27_k1
 y_s78_i26_j27_k2 y_s78_i27_j28_k0 y_s78_i27_j28_k1 y_s78_i27_j28_k2
 y_s78_i28_j25_k0 y_s78_i28_j25_k1 y_s78_i28_j25_k2 y_s78_i29_j7_k0
 y_s78_i29_j7_k1 y_s78_i29_j7_k2 y_s78_i30_j29_k0 y_s78_i30_j29_k1
 y_s78_i30_j29_k2 y_s78_i31_j30_k0 y_s78_i31_j30_k1 y_s78_i31_j30_k2
 y_s78_i32_j40_k0 y_s78_i32_j40_k1 y_s78_i32_j40_k2 y_s78_i33_j35_k0
 y_s78_i33_j35_k1 y_s78_i33_j35_k2 y_s78_i34_j33_k0 y_s78_i34_j33_k1
 y_s78_i34_j33_k2 y_s78_i35_j32_k0 y_s78_i35_j32_k1 y_s78_i35_j32_k2
 y_s78_i36_j49_k0 y_s78_i36_j49_k1 y_s78_i36_j49_k2 y_s78_i37_j39_k0
 y_s78_i37_j39_k1 y_s78_i37_j39_k2 y_s78_i38_j15_k0 y_s78_i38_j15_k1
 y_s78_i38_j15_k2 y_s78_i39_j53_k0 y_s78_i39_j53_k1 y_s78_i39_j53_k2
 y_s78_i40_j37_k0 y_s78_i40_j37_k1 y_s78_i40_j37_k2 y_s78_i41_j4_k0
 y_s78_i41_j4_k1 y_s78_i41_j4_k2 y_s78_i42_j44_k0 y_s78_i42_j44_k1
 y_s78_i42_j44_k2 y_s78_i43_j19_k0 y_s78_i43_j19_k1 y_s78_i43_j19_k2
 y_s78_i44_j50_k0 y_s78_i44_j50_k1 y_s78_i44_j50_k2 y_s78_i45_j18_k0
 y_s78_i45_j18_k1 y_s78_i45_j18_k2 y_s78_i46_j42_k0 y_s78_i46_j42_k1
 y_s78_i46_j42_k2 y_s78_i47_j41_k0 y_s78_i47_j41_k1 y_s78_i47_j41_k2
 y_s78_i48_j51_k0 y_s78_i48_j51_k1 y_s78_i48_j51_k2 y_s78_i49_j26_k0
 y_s78_i49_j26_k1 y_s78_i49_j26_k2 y_s78_i50_j48_k0 y_s78_i50_j48_k1
 y_s78_i50_j48_k2 y_s78_i51_j36_k0 y_s78_i51_j36_k1 y_s78_i51_j36_k2
 y_s78_i52_j47_k0 y_s78_i52_j47_k1 y_s78_i52_j47_k2 y_s78_i53_j43_k0
 y_s78_i53_j43_k1 y_s78_i53_j43_k2 y_s96_i0_j2_k0 y_s96_i0_j2_k1
 y_s96_i0_j2_k2 y_s96_i1_j22_k0 y_s96_i1_j22_k1 y_s96_i1_j22_k2
 y_s96_i2_j1_k0 y_s96_i2_j1_k1 y_s96_i2_j1_k2 y_s96_i3_j9_k0 y_s96_i3_j9_k1
 y_s96_i3_j9_k2 y_s96_i4_j34_k0 y_s96_i4_j34_k1 y_s96_i4_j34_k2
 y_s96_i5_j0_k0 y_s96_i5_j0_k1 y_s96_i5_j0_k2 y_s96_i6_j52_k0
 y_s96_i6_j52_k1 y_s96_i6_j52_k2 y_s96_i7_j3_k0 y_s96_i7_j3_k1
 y_s96_i7_j3_k2 y_s96_i8_j10_k0 y_s96_i8_j10_k1 y_s96_i8_j10_k2
 y_s96_i9_j6_k0 y_s96_i9_j6_k1 y_s96_i9_j6_k2 y_s96_i10_j5_k0
 y_s96_i10_j5_k1 y_s96_i10_j5_k2 y_s96_i11_j8_k0 y_s96_i11_j8_k1
 y_s96_i11_j8_k2 y_s96_i12_j11_k0 y_s96_i12_j11_k1 y_s96_i12_j11_k2
 y_s96_i13_j14_k0 y_s96_i13_j14_k1 y_s96_i13_j14_k2 y_s96_i14_j12_k0
 y_s96_i14_j12_k1 y_s96_i14_j12_k2 y_s96_i15_j13_k0 y_s96_i15_j13_k1
 y_s96_i15_j13_k2 y_s96_i16_j17_k0 y_s96_i16_j17_k1 y_s96_i16_j17_k2
 y_s96_i17_j38_k0 y_s96_i17_j38_k1 y_s96_i17_j38_k2 y_s96_i18_j20_k0
 y_s96_i18_j20_k1 y_s96_i18_j20_k2 y_s96_i19_j45_k0 y_s96_i19_j45_k1
 y_s96_i19_j45_k2 y_s96_i20_j16_k0 y_s96_i20_j16_k1 y_s96_i20_j16_k2
 y_s96_i21_j24_k0 y_s96_i21_j24_k1 y_s96_i21_j24_k2 y_s96_i22_j21_k0
 y_s96_i22_j21_k1 y_s96_i22_j21_k2 y_s96_i23_j46_k0 y_s96_i23_j46_k1
 y_s96_i23_j46_k2 y_s96_i24_j23_k0 y_s96_i24_j23_k1 y_s96_i24_j23_k2
 y_s96_i25_j31_k0 y_s96_i25_j31_k1 y_s96_i25_j31_k2 y_s96_i26_j27_k0
 y_s96_i26_j27_k1 y_s96_i26_j27_k2 y_s96_i27_j28_k0 y_s96_i27_j28_k1
 y_s96_i27_j28_k2 y_s96_i28_j25_k0 y_s96_i28_j25_k1 y_s96_i28_j25_k2
 y_s96_i29_j7_k0 y_s96_i29_j7_k1 y_s96_i29_j7_k2 y_s96_i30_j29_k0
 y_s96_i30_j29_k1 y_s96_i30_j29_k2 y_s96_i31_j30_k0 y_s96_i31_j30_k1
 y_s96_i31_j30_k2 y_s96_i32_j40_k0 y_s96_i32_j40_k1 y_s96_i32_j40_k2
 y_s96_i33_j35_k0 y_s96_i33_j35_k1 y_s96_i33_j35_k2 y_s96_i34_j33_k0
 y_s96_i34_j33_k1 y_s96_i34_j33_k2 y_s96_i35_j32_k0 y_s96_i35_j32_k1
 y_s96_i35_j32_k2 y_s96_i36_j49_k0 y_s96_i36_j49_k1 y_s96_i36_j49_k2
 y_s96_i37_j39_k0 y_s96_i37_j39_k1 y_s96_i37_j39_k2 y_s96_i38_j15_k0
 y_s96_i38_j15_k1 y_s96_i38_j15_k2 y_s96_i39_j53_k0 y_s96_i39_j53_k1
 y_s96_i39_j53_k2 y_s96_i40_j37_k0 y_s96_i40_j37_k1 y_s96_i40_j37_k2
 y_s96_i41_j4_k0 y_s96_i41_j4_k1 y_s96_i41_j4_k2 y_s96_i42_j44_k0
 y_s96_i42_j44_k1 y_s96_i42_j44_k2 y_s96_i43_j19_k0 y_s96_i43_j19_k1
 y_s96_i43_j19_k2 y_s96_i44_j50_k0 y_s96_i44_j50_k1 y_s96_i44_j50_k2
 y_s96_i45_j18_k0 y_s96_i45_j18_k1 y_s96_i45_j18_k2 y_s96_i46_j42_k0
 y_s96_i46_j42_k1 y_s96_i46_j42_k2 y_s96_i47_j41_k0 y_s96_i47_j41_k1
 y_s96_i47_j41_k2 y_s96_i48_j51_k0 y_s96_i48_j51_k1 y_s96_i48_j51_k2
 y_s96_i49_j26_k0 y_s96_i49_j26_k1 y_s96_i49_j26_k2 y_s96_i50_j48_k0
 y_s96_i50_j48_k1 y_s96_i50_j48_k2 y_s96_i51_j36_k0 y_s96_i51_j36_k1
 y_s96_i51_j36_k2 y_s96_i52_j47_k0 y_s96_i52_j47_k1 y_s96_i52_j47_k2
 y_s96_i53_j43_k0 y_s96_i53_j43_k1 y_s96_i53_j43_k2 y_s64_i0_j2_k0
 y_s64_i0_j2_k1 y_s64_i0_j2_k2 y_s64_i1_j22_k0 y_s64_i1_j22_k1
 y_s64_i1_j22_k2 y_s64_i2_j1_k0 y_s64_i2_j1_k1 y_s64_i2_j1_k2
 y_s64_i3_j9_k0 y_s64_i3_j9_k1 y_s64_i3_j9_k2 y_s64_i4_j34_k0
 y_s64_i4_j34_k1 y_s64_i4_j34_k2 y_s64_i5_j0_k0 y_s64_i5_j0_k1
 y_s64_i5_j0_k2 y_s64_i6_j52_k0 y_s64_i6_j52_k1 y_s64_i6_j52_k2
 y_s64_i7_j3_k0 y_s64_i7_j3_k1 y_s64_i7_j3_k2 y_s64_i8_j10_k0
 y_s64_i8_j10_k1 y_s64_i8_j10_k2 y_s64_i9_j6_k0 y_s64_i9_j6_k1
 y_s64_i9_j6_k2 y_s64_i10_j5_k0 y_s64_i10_j5_k1 y_s64_i10_j5_k2
 y_s64_i11_j8_k0 y_s64_i11_j8_k1 y_s64_i11_j8_k2 y_s64_i12_j11_k0
 y_s64_i12_j11_k1 y_s64_i12_j11_k2 y_s64_i13_j14_k0 y_s64_i13_j14_k1
 y_s64_i13_j14_k2 y_s64_i14_j12_k0 y_s64_i14_j12_k1 y_s64_i14_j12_k2
 y_s64_i15_j13_k0 y_s64_i15_j13_k1 y_s64_i15_j13_k2 y_s64_i16_j17_k0
 y_s64_i16_j17_k1 y_s64_i16_j17_k2 y_s64_i17_j38_k0 y_s64_i17_j38_k1
 y_s64_i17_j38_k2 y_s64_i18_j20_k0 y_s64_i18_j20_k1 y_s64_i18_j20_k2
 y_s64_i19_j45_k0 y_s64_i19_j45_k1 y_s64_i19_j45_k2 y_s64_i20_j16_k0
 y_s64_i20_j16_k1 y_s64_i20_j16_k2 y_s64_i21_j24_k0 y_s64_i21_j24_k1
 y_s64_i21_j24_k2 y_s64_i22_j21_k0 y_s64_i22_j21_k1 y_s64_i22_j21_k2
 y_s64_i23_j46_k0 y_s64_i23_j46_k1 y_s64_i23_j46_k2 y_s64_i24_j23_k0
 y_s64_i24_j23_k1 y_s64_i24_j23_k2 y_s64_i25_j31_k0 y_s64_i25_j31_k1
 y_s64_i25_j31_k2 y_s64_i26_j27_k0 y_s64_i26_j27_k1 y_s64_i26_j27_k2
 y_s64_i27_j28_k0 y_s64_i27_j28_k1 y_s64_i27_j28_k2 y_s64_i28_j25_k0
 y_s64_i28_j25_k1 y_s64_i28_j25_k2 y_s64_i29_j7_k0 y_s64_i29_j7_k1
 y_s64_i29_j7_k2 y_s64_i30_j29_k0 y_s64_i30_j29_k1 y_s64_i30_j29_k2
 y_s64_i31_j30_k0 y_s64_i31_j30_k1 y_s64_i31_j30_k2 y_s64_i32_j40_k0
 y_s64_i32_j40_k1 y_s64_i32_j40_k2 y_s64_i33_j35_k0 y_s64_i33_j35_k1
 y_s64_i33_j35_k2 y_s64_i34_j33_k0 y_s64_i34_j33_k1 y_s64_i34_j33_k2
 y_s64_i35_j32_k0 y_s64_i35_j32_k1 y_s64_i35_j32_k2 y_s64_i36_j49_k0
 y_s64_i36_j49_k1 y_s64_i36_j49_k2 y_s64_i37_j39_k0 y_s64_i37_j39_k1
 y_s64_i37_j39_k2 y_s64_i38_j15_k0 y_s64_i38_j15_k1 y_s64_i38_j15_k2
 y_s64_i39_j53_k0 y_s64_i39_j53_k1 y_s64_i39_j53_k2 y_s64_i40_j37_k0
 y_s64_i40_j37_k1 y_s64_i40_j37_k2 y_s64_i41_j4_k0 y_s64_i41_j4_k1
 y_s64_i41_j4_k2 y_s64_i42_j44_k0 y_s64_i42_j44_k1 y_s64_i42_j44_k2
 y_s64_i43_j19_k0 y_s64_i43_j19_k1 y_s64_i43_j19_k2 y_s64_i44_j50_k0
 y_s64_i44_j50_k1 y_s64_i44_j50_k2 y_s64_i45_j18_k0 y_s64_i45_j18_k1
 y_s64_i45_j18_k2 y_s64_i46_j42_k0 y_s64_i46_j42_k1 y_s64_i46_j42_k2
 y_s64_i47_j41_k0 y_s64_i47_j41_k1 y_s64_i47_j41_k2 y_s64_i48_j51_k0
 y_s64_i48_j51_k1 y_s64_i48_j51_k2 y_s64_i49_j26_k0 y_s64_i49_j26_k1
 y_s64_i49_j26_k2 y_s64_i50_j48_k0 y_s64_i50_j48_k1 y_s64_i50_j48_k2
 y_s64_i51_j36_k0 y_s64_i51_j36_k1 y_s64_i51_j36_k2 y_s64_i52_j47_k0
 y_s64_i52_j47_k1 y_s64_i52_j47_k2 y_s64_i53_j43_k0 y_s64_i53_j43_k1
 y_s64_i53_j43_k2 y_s20_i0_j2_k0 y_s20_i0_j2_k1 y_s20_i0_j2_k2
 y_s20_i1_j22_k0 y_s20_i1_j22_k1 y_s20_i1_j22_k2 y_s20_i2_j1_k0
 y_s20_i2_j1_k1 y_s20_i2_j1_k2 y_s20_i3_j9_k0 y_s20_i3_j9_k1 y_s20_i3_j9_k2
 y_s20_i4_j34_k0 y_s20_i4_j34_k1 y_s20_i4_j34_k2 y_s20_i5_j0_k0
 y_s20_i5_j0_k1 y_s20_i5_j0_k2 y_s20_i6_j52_k0 y_s20_i6_j52_k1
 y_s20_i6_j52_k2 y_s20_i7_j3_k0 y_s20_i7_j3_k1 y_s20_i7_j3_k2
 y_s20_i8_j10_k0 y_s20_i8_j10_k1 y_s20_i8_j10_k2 y_s20_i9_j6_k0
 y_s20_i9_j6_k1 y_s20_i9_j6_k2 y_s20_i10_j5_k0 y_s20_i10_j5_k1
 y_s20_i10_j5_k2 y_s20_i11_j8_k0 y_s20_i11_j8_k1 y_s20_i11_j8_k2
 y_s20_i12_j11_k0 y_s20_i12_j11_k1 y_s20_i12_j11_k2 y_s20_i13_j14_k0
 y_s20_i13_j14_k1 y_s20_i13_j14_k2 y_s20_i14_j12_k0 y_s20_i14_j12_k1
 y_s20_i14_j12_k2 y_s20_i15_j13_k0 y_s20_i15_j13_k1 y_s20_i15_j13_k2
 y_s20_i16_j17_k0 y_s20_i16_j17_k1 y_s20_i16_j17_k2 y_s20_i17_j38_k0
 y_s20_i17_j38_k1 y_s20_i17_j38_k2 y_s20_i18_j20_k0 y_s20_i18_j20_k1
 y_s20_i18_j20_k2 y_s20_i19_j45_k0 y_s20_i19_j45_k1 y_s20_i19_j45_k2
 y_s20_i20_j16_k0 y_s20_i20_j16_k1 y_s20_i20_j16_k2 y_s20_i21_j24_k0
 y_s20_i21_j24_k1 y_s20_i21_j24_k2 y_s20_i22_j21_k0 y_s20_i22_j21_k1
 y_s20_i22_j21_k2 y_s20_i23_j46_k0 y_s20_i23_j46_k1 y_s20_i23_j46_k2
 y_s20_i24_j23_k0 y_s20_i24_j23_k1 y_s20_i24_j23_k2 y_s20_i25_j31_k0
 y_s20_i25_j31_k1 y_s20_i25_j31_k2 y_s20_i26_j27_k0 y_s20_i26_j27_k1
 y_s20_i26_j27_k2 y_s20_i27_j28_k0 y_s20_i27_j28_k1 y_s20_i27_j28_k2
 y_s20_i28_j25_k0 y_s20_i28_j25_k1 y_s20_i28_j25_k2 y_s20_i29_j7_k0
 y_s20_i29_j7_k1 y_s20_i29_j7_k2 y_s20_i30_j29_k0 y_s20_i30_j29_k1
 y_s20_i30_j29_k2 y_s20_i31_j30_k0 y_s20_i31_j30_k1 y_s20_i31_j30_k2
 y_s20_i32_j40_k0 y_s20_i32_j40_k1 y_s20_i32_j40_k2 y_s20_i33_j35_k0
 y_s20_i33_j35_k1 y_s20_i33_j35_k2 y_s20_i34_j33_k0 y_s20_i34_j33_k1
 y_s20_i34_j33_k2 y_s20_i35_j32_k0 y_s20_i35_j32_k1 y_s20_i35_j32_k2
 y_s20_i36_j49_k0 y_s20_i36_j49_k1 y_s20_i36_j49_k2 y_s20_i37_j39_k0
 y_s20_i37_j39_k1 y_s20_i37_j39_k2 y_s20_i38_j15_k0 y_s20_i38_j15_k1
 y_s20_i38_j15_k2 y_s20_i39_j53_k0 y_s20_i39_j53_k1 y_s20_i39_j53_k2
 y_s20_i40_j37_k0 y_s20_i40_j37_k1 y_s20_i40_j37_k2 y_s20_i41_j4_k0
 y_s20_i41_j4_k1 y_s20_i41_j4_k2 y_s20_i42_j44_k0 y_s20_i42_j44_k1
 y_s20_i42_j44_k2 y_s20_i43_j19_k0 y_s20_i43_j19_k1 y_s20_i43_j19_k2
 y_s20_i44_j50_k0 y_s20_i44_j50_k1 y_s20_i44_j50_k2 y_s20_i45_j18_k0
 y_s20_i45_j18_k1 y_s20_i45_j18_k2 y_s20_i46_j42_k0 y_s20_i46_j42_k1
 y_s20_i46_j42_k2 y_s20_i47_j41_k0 y_s20_i47_j41_k1 y_s20_i47_j41_k2
 y_s20_i48_j51_k0 y_s20_i48_j51_k1 y_s20_i48_j51_k2 y_s20_i49_j26_k0
 y_s20_i49_j26_k1 y_s20_i49_j26_k2 y_s20_i50_j48_k0 y_s20_i50_j48_k1
 y_s20_i50_j48_k2 y_s20_i51_j36_k0 y_s20_i51_j36_k1 y_s20_i51_j36_k2
 y_s20_i52_j47_k0 y_s20_i52_j47_k1 y_s20_i52_j47_k2 y_s20_i53_j43_k0
 y_s20_i53_j43_k1 y_s20_i53_j43_k2 y_s51_i0_j2_k0 y_s51_i0_j2_k1
 y_s51_i0_j2_k2 y_s51_i1_j22_k0 y_s51_i1_j22_k1 y_s51_i1_j22_k2
 y_s51_i2_j1_k0 y_s51_i2_j1_k1 y_s51_i2_j1_k2 y_s51_i3_j9_k0 y_s51_i3_j9_k1
 y_s51_i3_j9_k2 y_s51_i4_j34_k0 y_s51_i4_j34_k1 y_s51_i4_j34_k2
 y_s51_i5_j0_k0 y_s51_i5_j0_k1 y_s51_i5_j0_k2 y_s51_i6_j52_k0
 y_s51_i6_j52_k1 y_s51_i6_j52_k2 y_s51_i7_j3_k0 y_s51_i7_j3_k1
 y_s51_i7_j3_k2 y_s51_i8_j10_k0 y_s51_i8_j10_k1 y_s51_i8_j10_k2
 y_s51_i9_j6_k0 y_s51_i9_j6_k1 y_s51_i9_j6_k2 y_s51_i10_j5_k0
 y_s51_i10_j5_k1 y_s51_i10_j5_k2 y_s51_i11_j8_k0 y_s51_i11_j8_k1
 y_s51_i11_j8_k2 y_s51_i12_j11_k0 y_s51_i12_j11_k1 y_s51_i12_j11_k2
 y_s51_i13_j14_k0 y_s51_i13_j14_k1 y_s51_i13_j14_k2 y_s51_i14_j12_k0
 y_s51_i14_j12_k1 y_s51_i14_j12_k2 y_s51_i15_j13_k0 y_s51_i15_j13_k1
 y_s51_i15_j13_k2 y_s51_i16_j17_k0 y_s51_i16_j17_k1 y_s51_i16_j17_k2
 y_s51_i17_j38_k0 y_s51_i17_j38_k1 y_s51_i17_j38_k2 y_s51_i18_j20_k0
 y_s51_i18_j20_k1 y_s51_i18_j20_k2 y_s51_i19_j45_k0 y_s51_i19_j45_k1
 y_s51_i19_j45_k2 y_s51_i20_j16_k0 y_s51_i20_j16_k1 y_s51_i20_j16_k2
 y_s51_i21_j24_k0 y_s51_i21_j24_k1 y_s51_i21_j24_k2 y_s51_i22_j21_k0
 y_s51_i22_j21_k1 y_s51_i22_j21_k2 y_s51_i23_j46_k0 y_s51_i23_j46_k1
 y_s51_i23_j46_k2 y_s51_i24_j23_k0 y_s51_i24_j23_k1 y_s51_i24_j23_k2
 y_s51_i25_j31_k0 y_s51_i25_j31_k1 y_s51_i25_j31_k2 y_s51_i26_j27_k0
 y_s51_i26_j27_k1 y_s51_i26_j27_k2 y_s51_i27_j28_k0 y_s51_i27_j28_k1
 y_s51_i27_j28_k2 y_s51_i28_j25_k0 y_s51_i28_j25_k1 y_s51_i28_j25_k2
 y_s51_i29_j7_k0 y_s51_i29_j7_k1 y_s51_i29_j7_k2 y_s51_i30_j29_k0
 y_s51_i30_j29_k1 y_s51_i30_j29_k2 y_s51_i31_j30_k0 y_s51_i31_j30_k1
 y_s51_i31_j30_k2 y_s51_i32_j40_k0 y_s51_i32_j40_k1 y_s51_i32_j40_k2
 y_s51_i33_j35_k0 y_s51_i33_j35_k1 y_s51_i33_j35_k2 y_s51_i34_j33_k0
 y_s51_i34_j33_k1 y_s51_i34_j33_k2 y_s51_i35_j32_k0 y_s51_i35_j32_k1
 y_s51_i35_j32_k2 y_s51_i36_j49_k0 y_s51_i36_j49_k1 y_s51_i36_j49_k2
 y_s51_i37_j39_k0 y_s51_i37_j39_k1 y_s51_i37_j39_k2 y_s51_i38_j15_k0
 y_s51_i38_j15_k1 y_s51_i38_j15_k2 y_s51_i39_j53_k0 y_s51_i39_j53_k1
 y_s51_i39_j53_k2 y_s51_i40_j37_k0 y_s51_i40_j37_k1 y_s51_i40_j37_k2
 y_s51_i41_j4_k0 y_s51_i41_j4_k1 y_s51_i41_j4_k2 y_s51_i42_j44_k0
 y_s51_i42_j44_k1 y_s51_i42_j44_k2 y_s51_i43_j19_k0 y_s51_i43_j19_k1
 y_s51_i43_j19_k2 y_s51_i44_j50_k0 y_s51_i44_j50_k1 y_s51_i44_j50_k2
 y_s51_i45_j18_k0 y_s51_i45_j18_k1 y_s51_i45_j18_k2 y_s51_i46_j42_k0
 y_s51_i46_j42_k1 y_s51_i46_j42_k2 y_s51_i47_j41_k0 y_s51_i47_j41_k1
 y_s51_i47_j41_k2 y_s51_i48_j51_k0 y_s51_i48_j51_k1 y_s51_i48_j51_k2
 y_s51_i49_j26_k0 y_s51_i49_j26_k1 y_s51_i49_j26_k2 y_s51_i50_j48_k0
 y_s51_i50_j48_k1 y_s51_i50_j48_k2 y_s51_i51_j36_k0 y_s51_i51_j36_k1
 y_s51_i51_j36_k2 y_s51_i52_j47_k0 y_s51_i52_j47_k1 y_s51_i52_j47_k2
 y_s51_i53_j43_k0 y_s51_i53_j43_k1 y_s51_i53_j43_k2 y_s61_i0_j2_k0
 y_s61_i0_j2_k1 y_s61_i0_j2_k2 y_s61_i1_j22_k0 y_s61_i1_j22_k1
 y_s61_i1_j22_k2 y_s61_i2_j1_k0 y_s61_i2_j1_k1 y_s61_i2_j1_k2
 y_s61_i3_j9_k0 y_s61_i3_j9_k1 y_s61_i3_j9_k2 y_s61_i4_j34_k0
 y_s61_i4_j34_k1 y_s61_i4_j34_k2 y_s61_i5_j0_k0 y_s61_i5_j0_k1
 y_s61_i5_j0_k2 y_s61_i6_j52_k0 y_s61_i6_j52_k1 y_s61_i6_j52_k2
 y_s61_i7_j3_k0 y_s61_i7_j3_k1 y_s61_i7_j3_k2 y_s61_i8_j10_k0
 y_s61_i8_j10_k1 y_s61_i8_j10_k2 y_s61_i9_j6_k0 y_s61_i9_j6_k1
 y_s61_i9_j6_k2 y_s61_i10_j5_k0 y_s61_i10_j5_k1 y_s61_i10_j5_k2
 y_s61_i11_j8_k0 y_s61_i11_j8_k1 y_s61_i11_j8_k2 y_s61_i12_j11_k0
 y_s61_i12_j11_k1 y_s61_i12_j11_k2 y_s61_i13_j14_k0 y_s61_i13_j14_k1
 y_s61_i13_j14_k2 y_s61_i14_j12_k0 y_s61_i14_j12_k1 y_s61_i14_j12_k2
 y_s61_i15_j13_k0 y_s61_i15_j13_k1 y_s61_i15_j13_k2 y_s61_i16_j17_k0
 y_s61_i16_j17_k1 y_s61_i16_j17_k2 y_s61_i17_j38_k0 y_s61_i17_j38_k1
 y_s61_i17_j38_k2 y_s61_i18_j20_k0 y_s61_i18_j20_k1 y_s61_i18_j20_k2
 y_s61_i19_j45_k0 y_s61_i19_j45_k1 y_s61_i19_j45_k2 y_s61_i20_j16_k0
 y_s61_i20_j16_k1 y_s61_i20_j16_k2 y_s61_i21_j24_k0 y_s61_i21_j24_k1
 y_s61_i21_j24_k2 y_s61_i22_j21_k0 y_s61_i22_j21_k1 y_s61_i22_j21_k2
 y_s61_i23_j46_k0 y_s61_i23_j46_k1 y_s61_i23_j46_k2 y_s61_i24_j23_k0
 y_s61_i24_j23_k1 y_s61_i24_j23_k2 y_s61_i25_j31_k0 y_s61_i25_j31_k1
 y_s61_i25_j31_k2 y_s61_i26_j27_k0 y_s61_i26_j27_k1 y_s61_i26_j27_k2
 y_s61_i27_j28_k0 y_s61_i27_j28_k1 y_s61_i27_j28_k2 y_s61_i28_j25_k0
 y_s61_i28_j25_k1 y_s61_i28_j25_k2 y_s61_i29_j7_k0 y_s61_i29_j7_k1
 y_s61_i29_j7_k2 y_s61_i30_j29_k0 y_s61_i30_j29_k1 y_s61_i30_j29_k2
 y_s61_i31_j30_k0 y_s61_i31_j30_k1 y_s61_i31_j30_k2 y_s61_i32_j40_k0
 y_s61_i32_j40_k1 y_s61_i32_j40_k2 y_s61_i33_j35_k0 y_s61_i33_j35_k1
 y_s61_i33_j35_k2 y_s61_i34_j33_k0 y_s61_i34_j33_k1 y_s61_i34_j33_k2
 y_s61_i35_j32_k0 y_s61_i35_j32_k1 y_s61_i35_j32_k2 y_s61_i36_j49_k0
 y_s61_i36_j49_k1 y_s61_i36_j49_k2 y_s61_i37_j39_k0 y_s61_i37_j39_k1
 y_s61_i37_j39_k2 y_s61_i38_j15_k0 y_s61_i38_j15_k1 y_s61_i38_j15_k2
 y_s61_i39_j53_k0 y_s61_i39_j53_k1 y_s61_i39_j53_k2 y_s61_i40_j37_k0
 y_s61_i40_j37_k1 y_s61_i40_j37_k2 y_s61_i41_j4_k0 y_s61_i41_j4_k1
 y_s61_i41_j4_k2 y_s61_i42_j44_k0 y_s61_i42_j44_k1 y_s61_i42_j44_k2
 y_s61_i43_j19_k0 y_s61_i43_j19_k1 y_s61_i43_j19_k2 y_s61_i44_j50_k0
 y_s61_i44_j50_k1 y_s61_i44_j50_k2 y_s61_i45_j18_k0 y_s61_i45_j18_k1
 y_s61_i45_j18_k2 y_s61_i46_j42_k0 y_s61_i46_j42_k1 y_s61_i46_j42_k2
 y_s61_i47_j41_k0 y_s61_i47_j41_k1 y_s61_i47_j41_k2 y_s61_i48_j51_k0
 y_s61_i48_j51_k1 y_s61_i48_j51_k2 y_s61_i49_j26_k0 y_s61_i49_j26_k1
 y_s61_i49_j26_k2 y_s61_i50_j48_k0 y_s61_i50_j48_k1 y_s61_i50_j48_k2
 y_s61_i51_j36_k0 y_s61_i51_j36_k1 y_s61_i51_j36_k2 y_s61_i52_j47_k0
 y_s61_i52_j47_k1 y_s61_i52_j47_k2 y_s61_i53_j43_k0 y_s61_i53_j43_k1
 y_s61_i53_j43_k2 y_s81_i0_j2_k0 y_s81_i0_j2_k1 y_s81_i0_j2_k2
 y_s81_i1_j22_k0 y_s81_i1_j22_k1 y_s81_i1_j22_k2 y_s81_i2_j1_k0
 y_s81_i2_j1_k1 y_s81_i2_j1_k2 y_s81_i3_j9_k0 y_s81_i3_j9_k1 y_s81_i3_j9_k2
 y_s81_i4_j34_k0 y_s81_i4_j34_k1 y_s81_i4_j34_k2 y_s81_i5_j0_k0
 y_s81_i5_j0_k1 y_s81_i5_j0_k2 y_s81_i6_j52_k0 y_s81_i6_j52_k1
 y_s81_i6_j52_k2 y_s81_i7_j3_k0 y_s81_i7_j3_k1 y_s81_i7_j3_k2
 y_s81_i8_j10_k0 y_s81_i8_j10_k1 y_s81_i8_j10_k2 y_s81_i9_j6_k0
 y_s81_i9_j6_k1 y_s81_i9_j6_k2 y_s81_i10_j5_k0 y_s81_i10_j5_k1
 y_s81_i10_j5_k2 y_s81_i11_j8_k0 y_s81_i11_j8_k1 y_s81_i11_j8_k2
 y_s81_i12_j11_k0 y_s81_i12_j11_k1 y_s81_i12_j11_k2 y_s81_i13_j14_k0
 y_s81_i13_j14_k1 y_s81_i13_j14_k2 y_s81_i14_j12_k0 y_s81_i14_j12_k1
 y_s81_i14_j12_k2 y_s81_i15_j13_k0 y_s81_i15_j13_k1 y_s81_i15_j13_k2
 y_s81_i16_j17_k0 y_s81_i16_j17_k1 y_s81_i16_j17_k2 y_s81_i17_j38_k0
 y_s81_i17_j38_k1 y_s81_i17_j38_k2 y_s81_i18_j20_k0 y_s81_i18_j20_k1
 y_s81_i18_j20_k2 y_s81_i19_j45_k0 y_s81_i19_j45_k1 y_s81_i19_j45_k2
 y_s81_i20_j16_k0 y_s81_i20_j16_k1 y_s81_i20_j16_k2 y_s81_i21_j24_k0
 y_s81_i21_j24_k1 y_s81_i21_j24_k2 y_s81_i22_j21_k0 y_s81_i22_j21_k1
 y_s81_i22_j21_k2 y_s81_i23_j46_k0 y_s81_i23_j46_k1 y_s81_i23_j46_k2
 y_s81_i24_j23_k0 y_s81_i24_j23_k1 y_s81_i24_j23_k2 y_s81_i25_j31_k0
 y_s81_i25_j31_k1 y_s81_i25_j31_k2 y_s81_i26_j27_k0 y_s81_i26_j27_k1
 y_s81_i26_j27_k2 y_s81_i27_j28_k0 y_s81_i27_j28_k1 y_s81_i27_j28_k2
 y_s81_i28_j25_k0 y_s81_i28_j25_k1 y_s81_i28_j25_k2 y_s81_i29_j7_k0
 y_s81_i29_j7_k1 y_s81_i29_j7_k2 y_s81_i30_j29_k0 y_s81_i30_j29_k1
 y_s81_i30_j29_k2 y_s81_i31_j30_k0 y_s81_i31_j30_k1 y_s81_i31_j30_k2
 y_s81_i32_j40_k0 y_s81_i32_j40_k1 y_s81_i32_j40_k2 y_s81_i33_j35_k0
 y_s81_i33_j35_k1 y_s81_i33_j35_k2 y_s81_i34_j33_k0 y_s81_i34_j33_k1
 y_s81_i34_j33_k2 y_s81_i35_j32_k0 y_s81_i35_j32_k1 y_s81_i35_j32_k2
 y_s81_i36_j49_k0 y_s81_i36_j49_k1 y_s81_i36_j49_k2 y_s81_i37_j39_k0
 y_s81_i37_j39_k1 y_s81_i37_j39_k2 y_s81_i38_j15_k0 y_s81_i38_j15_k1
 y_s81_i38_j15_k2 y_s81_i39_j53_k0 y_s81_i39_j53_k1 y_s81_i39_j53_k2
 y_s81_i40_j37_k0 y_s81_i40_j37_k1 y_s81_i40_j37_k2 y_s81_i41_j4_k0
 y_s81_i41_j4_k1 y_s81_i41_j4_k2 y_s81_i42_j44_k0 y_s81_i42_j44_k1
 y_s81_i42_j44_k2 y_s81_i43_j19_k0 y_s81_i43_j19_k1 y_s81_i43_j19_k2
 y_s81_i44_j50_k0 y_s81_i44_j50_k1 y_s81_i44_j50_k2 y_s81_i45_j18_k0
 y_s81_i45_j18_k1 y_s81_i45_j18_k2 y_s81_i46_j42_k0 y_s81_i46_j42_k1
 y_s81_i46_j42_k2 y_s81_i47_j41_k0 y_s81_i47_j41_k1 y_s81_i47_j41_k2
 y_s81_i48_j51_k0 y_s81_i48_j51_k1 y_s81_i48_j51_k2 y_s81_i49_j26_k0
 y_s81_i49_j26_k1 y_s81_i49_j26_k2 y_s81_i50_j48_k0 y_s81_i50_j48_k1
 y_s81_i50_j48_k2 y_s81_i51_j36_k0 y_s81_i51_j36_k1 y_s81_i51_j36_k2
 y_s81_i52_j47_k0 y_s81_i52_j47_k1 y_s81_i52_j47_k2 y_s81_i53_j43_k0
 y_s81_i53_j43_k1 y_s81_i53_j43_k2 y_s9_i0_j2_k0 y_s9_i0_j2_k1
 y_s9_i0_j2_k2 y_s9_i1_j22_k0 y_s9_i1_j22_k1 y_s9_i1_j22_k2 y_s9_i2_j1_k0
 y_s9_i2_j1_k1 y_s9_i2_j1_k2 y_s9_i3_j9_k0 y_s9_i3_j9_k1 y_s9_i3_j9_k2
 y_s9_i4_j34_k0 y_s9_i4_j34_k1 y_s9_i4_j34_k2 y_s9_i5_j0_k0 y_s9_i5_j0_k1
 y_s9_i5_j0_k2 y_s9_i6_j52_k0 y_s9_i6_j52_k1 y_s9_i6_j52_k2 y_s9_i7_j3_k0
 y_s9_i7_j3_k1 y_s9_i7_j3_k2 y_s9_i8_j10_k0 y_s9_i8_j10_k1 y_s9_i8_j10_k2
 y_s9_i9_j6_k0 y_s9_i9_j6_k1 y_s9_i9_j6_k2 y_s9_i10_j5_k0 y_s9_i10_j5_k1
 y_s9_i10_j5_k2 y_s9_i11_j8_k0 y_s9_i11_j8_k1 y_s9_i11_j8_k2
 y_s9_i12_j11_k0 y_s9_i12_j11_k1 y_s9_i12_j11_k2 y_s9_i13_j14_k0
 y_s9_i13_j14_k1 y_s9_i13_j14_k2 y_s9_i14_j12_k0 y_s9_i14_j12_k1
 y_s9_i14_j12_k2 y_s9_i15_j13_k0 y_s9_i15_j13_k1 y_s9_i15_j13_k2
 y_s9_i16_j17_k0 y_s9_i16_j17_k1 y_s9_i16_j17_k2 y_s9_i17_j38_k0
 y_s9_i17_j38_k1 y_s9_i17_j38_k2 y_s9_i18_j20_k0 y_s9_i18_j20_k1
 y_s9_i18_j20_k2 y_s9_i19_j45_k0 y_s9_i19_j45_k1 y_s9_i19_j45_k2
 y_s9_i20_j16_k0 y_s9_i20_j16_k1 y_s9_i20_j16_k2 y_s9_i21_j24_k0
 y_s9_i21_j24_k1 y_s9_i21_j24_k2 y_s9_i22_j21_k0 y_s9_i22_j21_k1
 y_s9_i22_j21_k2 y_s9_i23_j46_k0 y_s9_i23_j46_k1 y_s9_i23_j46_k2
 y_s9_i24_j23_k0 y_s9_i24_j23_k1 y_s9_i24_j23_k2 y_s9_i25_j31_k0
 y_s9_i25_j31_k1 y_s9_i25_j31_k2 y_s9_i26_j27_k0 y_s9_i26_j27_k1
 y_s9_i26_j27_k2 y_s9_i27_j28_k0 y_s9_i27_j28_k1 y_s9_i27_j28_k2
 y_s9_i28_j25_k0 y_s9_i28_j25_k1 y_s9_i28_j25_k2 y_s9_i29_j7_k0
 y_s9_i29_j7_k1 y_s9_i29_j7_k2 y_s9_i30_j29_k0 y_s9_i30_j29_k1
 y_s9_i30_j29_k2 y_s9_i31_j30_k0 y_s9_i31_j30_k1 y_s9_i31_j30_k2
 y_s9_i32_j40_k0 y_s9_i32_j40_k1 y_s9_i32_j40_k2 y_s9_i33_j35_k0
 y_s9_i33_j35_k1 y_s9_i33_j35_k2 y_s9_i34_j33_k0 y_s9_i34_j33_k1
 y_s9_i34_j33_k2 y_s9_i35_j32_k0 y_s9_i35_j32_k1 y_s9_i35_j32_k2
 y_s9_i36_j49_k0 y_s9_i36_j49_k1 y_s9_i36_j49_k2 y_s9_i37_j39_k0
 y_s9_i37_j39_k1 y_s9_i37_j39_k2 y_s9_i38_j15_k0 y_s9_i38_j15_k1
 y_s9_i38_j15_k2 y_s9_i39_j53_k0 y_s9_i39_j53_k1 y_s9_i39_j53_k2
 y_s9_i40_j37_k0 y_s9_i40_j37_k1 y_s9_i40_j37_k2 y_s9_i41_j4_k0
 y_s9_i41_j4_k1 y_s9_i41_j4_k2 y_s9_i42_j44_k0 y_s9_i42_j44_k1
 y_s9_i42_j44_k2 y_s9_i43_j19_k0 y_s9_i43_j19_k1 y_s9_i43_j19_k2
 y_s9_i44_j50_k0 y_s9_i44_j50_k1 y_s9_i44_j50_k2 y_s9_i45_j18_k0
 y_s9_i45_j18_k1 y_s9_i45_j18_k2 y_s9_i46_j42_k0 y_s9_i46_j42_k1
 y_s9_i46_j42_k2 y_s9_i47_j41_k0 y_s9_i47_j41_k1 y_s9_i47_j41_k2
 y_s9_i48_j51_k0 y_s9_i48_j51_k1 y_s9_i48_j51_k2 y_s9_i49_j26_k0
 y_s9_i49_j26_k1 y_s9_i49_j26_k2 y_s9_i50_j48_k0 y_s9_i50_j48_k1
 y_s9_i50_j48_k2 y_s9_i51_j36_k0 y_s9_i51_j36_k1 y_s9_i51_j36_k2
 y_s9_i52_j47_k0 y_s9_i52_j47_k1 y_s9_i52_j47_k2 y_s9_i53_j43_k0
 y_s9_i53_j43_k1 y_s9_i53_j43_k2 y_s63_i0_j2_k0 y_s63_i0_j2_k1
 y_s63_i0_j2_k2 y_s63_i1_j22_k0 y_s63_i1_j22_k1 y_s63_i1_j22_k2
 y_s63_i2_j1_k0 y_s63_i2_j1_k1 y_s63_i2_j1_k2 y_s63_i3_j9_k0 y_s63_i3_j9_k1
 y_s63_i3_j9_k2 y_s63_i4_j34_k0 y_s63_i4_j34_k1 y_s63_i4_j34_k2
 y_s63_i5_j0_k0 y_s63_i5_j0_k1 y_s63_i5_j0_k2 y_s63_i6_j52_k0
 y_s63_i6_j52_k1 y_s63_i6_j52_k2 y_s63_i7_j3_k0 y_s63_i7_j3_k1
 y_s63_i7_j3_k2 y_s63_i8_j10_k0 y_s63_i8_j10_k1 y_s63_i8_j10_k2
 y_s63_i9_j6_k0 y_s63_i9_j6_k1 y_s63_i9_j6_k2 y_s63_i10_j5_k0
 y_s63_i10_j5_k1 y_s63_i10_j5_k2 y_s63_i11_j8_k0 y_s63_i11_j8_k1
 y_s63_i11_j8_k2 y_s63_i12_j11_k0 y_s63_i12_j11_k1 y_s63_i12_j11_k2
 y_s63_i13_j14_k0 y_s63_i13_j14_k1 y_s63_i13_j14_k2 y_s63_i14_j12_k0
 y_s63_i14_j12_k1 y_s63_i14_j12_k2 y_s63_i15_j13_k0 y_s63_i15_j13_k1
 y_s63_i15_j13_k2 y_s63_i16_j17_k0 y_s63_i16_j17_k1 y_s63_i16_j17_k2
 y_s63_i17_j38_k0 y_s63_i17_j38_k1 y_s63_i17_j38_k2 y_s63_i18_j20_k0
 y_s63_i18_j20_k1 y_s63_i18_j20_k2 y_s63_i19_j45_k0 y_s63_i19_j45_k1
 y_s63_i19_j45_k2 y_s63_i20_j16_k0 y_s63_i20_j16_k1 y_s63_i20_j16_k2
 y_s63_i21_j24_k0 y_s63_i21_j24_k1 y_s63_i21_j24_k2 y_s63_i22_j21_k0
 y_s63_i22_j21_k1 y_s63_i22_j21_k2 y_s63_i23_j46_k0 y_s63_i23_j46_k1
 y_s63_i23_j46_k2 y_s63_i24_j23_k0 y_s63_i24_j23_k1 y_s63_i24_j23_k2
 y_s63_i25_j31_k0 y_s63_i25_j31_k1 y_s63_i25_j31_k2 y_s63_i26_j27_k0
 y_s63_i26_j27_k1 y_s63_i26_j27_k2 y_s63_i27_j28_k0 y_s63_i27_j28_k1
 y_s63_i27_j28_k2 y_s63_i28_j25_k0 y_s63_i28_j25_k1 y_s63_i28_j25_k2
 y_s63_i29_j7_k0 y_s63_i29_j7_k1 y_s63_i29_j7_k2 y_s63_i30_j29_k0
 y_s63_i30_j29_k1 y_s63_i30_j29_k2 y_s63_i31_j30_k0 y_s63_i31_j30_k1
 y_s63_i31_j30_k2 y_s63_i32_j40_k0 y_s63_i32_j40_k1 y_s63_i32_j40_k2
 y_s63_i33_j35_k0 y_s63_i33_j35_k1 y_s63_i33_j35_k2 y_s63_i34_j33_k0
 y_s63_i34_j33_k1 y_s63_i34_j33_k2 y_s63_i35_j32_k0 y_s63_i35_j32_k1
 y_s63_i35_j32_k2 y_s63_i36_j49_k0 y_s63_i36_j49_k1 y_s63_i36_j49_k2
 y_s63_i37_j39_k0 y_s63_i37_j39_k1 y_s63_i37_j39_k2 y_s63_i38_j15_k0
 y_s63_i38_j15_k1 y_s63_i38_j15_k2 y_s63_i39_j53_k0 y_s63_i39_j53_k1
 y_s63_i39_j53_k2 y_s63_i40_j37_k0 y_s63_i40_j37_k1 y_s63_i40_j37_k2
 y_s63_i41_j4_k0 y_s63_i41_j4_k1 y_s63_i41_j4_k2 y_s63_i42_j44_k0
 y_s63_i42_j44_k1 y_s63_i42_j44_k2 y_s63_i43_j19_k0 y_s63_i43_j19_k1
 y_s63_i43_j19_k2 y_s63_i44_j50_k0 y_s63_i44_j50_k1 y_s63_i44_j50_k2
 y_s63_i45_j18_k0 y_s63_i45_j18_k1 y_s63_i45_j18_k2 y_s63_i46_j42_k0
 y_s63_i46_j42_k1 y_s63_i46_j42_k2 y_s63_i47_j41_k0 y_s63_i47_j41_k1
 y_s63_i47_j41_k2 y_s63_i48_j51_k0 y_s63_i48_j51_k1 y_s63_i48_j51_k2
 y_s63_i49_j26_k0 y_s63_i49_j26_k1 y_s63_i49_j26_k2 y_s63_i50_j48_k0
 y_s63_i50_j48_k1 y_s63_i50_j48_k2 y_s63_i51_j36_k0 y_s63_i51_j36_k1
 y_s63_i51_j36_k2 y_s63_i52_j47_k0 y_s63_i52_j47_k1 y_s63_i52_j47_k2
 y_s63_i53_j43_k0 y_s63_i53_j43_k1 y_s63_i53_j43_k2 y_s43_i0_j2_k0
 y_s43_i0_j2_k1 y_s43_i0_j2_k2 y_s43_i1_j22_k0 y_s43_i1_j22_k1
 y_s43_i1_j22_k2 y_s43_i2_j1_k0 y_s43_i2_j1_k1 y_s43_i2_j1_k2
 y_s43_i3_j9_k0 y_s43_i3_j9_k1 y_s43_i3_j9_k2 y_s43_i4_j34_k0
 y_s43_i4_j34_k1 y_s43_i4_j34_k2 y_s43_i5_j0_k0 y_s43_i5_j0_k1
 y_s43_i5_j0_k2 y_s43_i6_j52_k0 y_s43_i6_j52_k1 y_s43_i6_j52_k2
 y_s43_i7_j3_k0 y_s43_i7_j3_k1 y_s43_i7_j3_k2 y_s43_i8_j10_k0
 y_s43_i8_j10_k1 y_s43_i8_j10_k2 y_s43_i9_j6_k0 y_s43_i9_j6_k1
 y_s43_i9_j6_k2 y_s43_i10_j5_k0 y_s43_i10_j5_k1 y_s43_i10_j5_k2
 y_s43_i11_j8_k0 y_s43_i11_j8_k1 y_s43_i11_j8_k2 y_s43_i12_j11_k0
 y_s43_i12_j11_k1 y_s43_i12_j11_k2 y_s43_i13_j14_k0 y_s43_i13_j14_k1
 y_s43_i13_j14_k2 y_s43_i14_j12_k0 y_s43_i14_j12_k1 y_s43_i14_j12_k2
 y_s43_i15_j13_k0 y_s43_i15_j13_k1 y_s43_i15_j13_k2 y_s43_i16_j17_k0
 y_s43_i16_j17_k1 y_s43_i16_j17_k2 y_s43_i17_j38_k0 y_s43_i17_j38_k1
 y_s43_i17_j38_k2 y_s43_i18_j20_k0 y_s43_i18_j20_k1 y_s43_i18_j20_k2
 y_s43_i19_j45_k0 y_s43_i19_j45_k1 y_s43_i19_j45_k2 y_s43_i20_j16_k0
 y_s43_i20_j16_k1 y_s43_i20_j16_k2 y_s43_i21_j24_k0 y_s43_i21_j24_k1
 y_s43_i21_j24_k2 y_s43_i22_j21_k0 y_s43_i22_j21_k1 y_s43_i22_j21_k2
 y_s43_i23_j46_k0 y_s43_i23_j46_k1 y_s43_i23_j46_k2 y_s43_i24_j23_k0
 y_s43_i24_j23_k1 y_s43_i24_j23_k2 y_s43_i25_j31_k0 y_s43_i25_j31_k1
 y_s43_i25_j31_k2 y_s43_i26_j27_k0 y_s43_i26_j27_k1 y_s43_i26_j27_k2
 y_s43_i27_j28_k0 y_s43_i27_j28_k1 y_s43_i27_j28_k2 y_s43_i28_j25_k0
 y_s43_i28_j25_k1 y_s43_i28_j25_k2 y_s43_i29_j7_k0 y_s43_i29_j7_k1
 y_s43_i29_j7_k2 y_s43_i30_j29_k0 y_s43_i30_j29_k1 y_s43_i30_j29_k2
 y_s43_i31_j30_k0 y_s43_i31_j30_k1 y_s43_i31_j30_k2 y_s43_i32_j40_k0
 y_s43_i32_j40_k1 y_s43_i32_j40_k2 y_s43_i33_j35_k0 y_s43_i33_j35_k1
 y_s43_i33_j35_k2 y_s43_i34_j33_k0 y_s43_i34_j33_k1 y_s43_i34_j33_k2
 y_s43_i35_j32_k0 y_s43_i35_j32_k1 y_s43_i35_j32_k2 y_s43_i36_j49_k0
 y_s43_i36_j49_k1 y_s43_i36_j49_k2 y_s43_i37_j39_k0 y_s43_i37_j39_k1
 y_s43_i37_j39_k2 y_s43_i38_j15_k0 y_s43_i38_j15_k1 y_s43_i38_j15_k2
 y_s43_i39_j53_k0 y_s43_i39_j53_k1 y_s43_i39_j53_k2 y_s43_i40_j37_k0
 y_s43_i40_j37_k1 y_s43_i40_j37_k2 y_s43_i41_j4_k0 y_s43_i41_j4_k1
 y_s43_i41_j4_k2 y_s43_i42_j44_k0 y_s43_i42_j44_k1 y_s43_i42_j44_k2
 y_s43_i43_j19_k0 y_s43_i43_j19_k1 y_s43_i43_j19_k2 y_s43_i44_j50_k0
 y_s43_i44_j50_k1 y_s43_i44_j50_k2 y_s43_i45_j18_k0 y_s43_i45_j18_k1
 y_s43_i45_j18_k2 y_s43_i46_j42_k0 y_s43_i46_j42_k1 y_s43_i46_j42_k2
 y_s43_i47_j41_k0 y_s43_i47_j41_k1 y_s43_i47_j41_k2 y_s43_i48_j51_k0
 y_s43_i48_j51_k1 y_s43_i48_j51_k2 y_s43_i49_j26_k0 y_s43_i49_j26_k1
 y_s43_i49_j26_k2 y_s43_i50_j48_k0 y_s43_i50_j48_k1 y_s43_i50_j48_k2
 y_s43_i51_j36_k0 y_s43_i51_j36_k1 y_s43_i51_j36_k2 y_s43_i52_j47_k0
 y_s43_i52_j47_k1 y_s43_i52_j47_k2 y_s43_i53_j43_k0 y_s43_i53_j43_k1
 y_s43_i53_j43_k2 y_s72_i0_j2_k0 y_s72_i0_j2_k1 y_s72_i0_j2_k2
 y_s72_i1_j22_k0 y_s72_i1_j22_k1 y_s72_i1_j22_k2 y_s72_i2_j1_k0
 y_s72_i2_j1_k1 y_s72_i2_j1_k2 y_s72_i3_j9_k0 y_s72_i3_j9_k1 y_s72_i3_j9_k2
 y_s72_i4_j34_k0 y_s72_i4_j34_k1 y_s72_i4_j34_k2 y_s72_i5_j0_k0
 y_s72_i5_j0_k1 y_s72_i5_j0_k2 y_s72_i6_j52_k0 y_s72_i6_j52_k1
 y_s72_i6_j52_k2 y_s72_i7_j3_k0 y_s72_i7_j3_k1 y_s72_i7_j3_k2
 y_s72_i8_j10_k0 y_s72_i8_j10_k1 y_s72_i8_j10_k2 y_s72_i9_j6_k0
 y_s72_i9_j6_k1 y_s72_i9_j6_k2 y_s72_i10_j5_k0 y_s72_i10_j5_k1
 y_s72_i10_j5_k2 y_s72_i11_j8_k0 y_s72_i11_j8_k1 y_s72_i11_j8_k2
 y_s72_i12_j11_k0 y_s72_i12_j11_k1 y_s72_i12_j11_k2 y_s72_i13_j14_k0
 y_s72_i13_j14_k1 y_s72_i13_j14_k2 y_s72_i14_j12_k0 y_s72_i14_j12_k1
 y_s72_i14_j12_k2 y_s72_i15_j13_k0 y_s72_i15_j13_k1 y_s72_i15_j13_k2
 y_s72_i16_j17_k0 y_s72_i16_j17_k1 y_s72_i16_j17_k2 y_s72_i17_j38_k0
 y_s72_i17_j38_k1 y_s72_i17_j38_k2 y_s72_i18_j20_k0 y_s72_i18_j20_k1
 y_s72_i18_j20_k2 y_s72_i19_j45_k0 y_s72_i19_j45_k1 y_s72_i19_j45_k2
 y_s72_i20_j16_k0 y_s72_i20_j16_k1 y_s72_i20_j16_k2 y_s72_i21_j24_k0
 y_s72_i21_j24_k1 y_s72_i21_j24_k2 y_s72_i22_j21_k0 y_s72_i22_j21_k1
 y_s72_i22_j21_k2 y_s72_i23_j46_k0 y_s72_i23_j46_k1 y_s72_i23_j46_k2
 y_s72_i24_j23_k0 y_s72_i24_j23_k1 y_s72_i24_j23_k2 y_s72_i25_j31_k0
 y_s72_i25_j31_k1 y_s72_i25_j31_k2 y_s72_i26_j27_k0 y_s72_i26_j27_k1
 y_s72_i26_j27_k2 y_s72_i27_j28_k0 y_s72_i27_j28_k1 y_s72_i27_j28_k2
 y_s72_i28_j25_k0 y_s72_i28_j25_k1 y_s72_i28_j25_k2 y_s72_i29_j7_k0
 y_s72_i29_j7_k1 y_s72_i29_j7_k2 y_s72_i30_j29_k0 y_s72_i30_j29_k1
 y_s72_i30_j29_k2 y_s72_i31_j30_k0 y_s72_i31_j30_k1 y_s72_i31_j30_k2
 y_s72_i32_j40_k0 y_s72_i32_j40_k1 y_s72_i32_j40_k2 y_s72_i33_j35_k0
 y_s72_i33_j35_k1 y_s72_i33_j35_k2 y_s72_i34_j33_k0 y_s72_i34_j33_k1
 y_s72_i34_j33_k2 y_s72_i35_j32_k0 y_s72_i35_j32_k1 y_s72_i35_j32_k2
 y_s72_i36_j49_k0 y_s72_i36_j49_k1 y_s72_i36_j49_k2 y_s72_i37_j39_k0
 y_s72_i37_j39_k1 y_s72_i37_j39_k2 y_s72_i38_j15_k0 y_s72_i38_j15_k1
 y_s72_i38_j15_k2 y_s72_i39_j53_k0 y_s72_i39_j53_k1 y_s72_i39_j53_k2
 y_s72_i40_j37_k0 y_s72_i40_j37_k1 y_s72_i40_j37_k2 y_s72_i41_j4_k0
 y_s72_i41_j4_k1 y_s72_i41_j4_k2 y_s72_i42_j44_k0 y_s72_i42_j44_k1
 y_s72_i42_j44_k2 y_s72_i43_j19_k0 y_s72_i43_j19_k1 y_s72_i43_j19_k2
 y_s72_i44_j50_k0 y_s72_i44_j50_k1 y_s72_i44_j50_k2 y_s72_i45_j18_k0
 y_s72_i45_j18_k1 y_s72_i45_j18_k2 y_s72_i46_j42_k0 y_s72_i46_j42_k1
 y_s72_i46_j42_k2 y_s72_i47_j41_k0 y_s72_i47_j41_k1 y_s72_i47_j41_k2
 y_s72_i48_j51_k0 y_s72_i48_j51_k1 y_s72_i48_j51_k2 y_s72_i49_j26_k0
 y_s72_i49_j26_k1 y_s72_i49_j26_k2 y_s72_i50_j48_k0 y_s72_i50_j48_k1
 y_s72_i50_j48_k2 y_s72_i51_j36_k0 y_s72_i51_j36_k1 y_s72_i51_j36_k2
 y_s72_i52_j47_k0 y_s72_i52_j47_k1 y_s72_i52_j47_k2 y_s72_i53_j43_k0
 y_s72_i53_j43_k1 y_s72_i53_j43_k2
End
